# amber(Print,SoftOnly) 

./data/biphen/res082/biphen_optff82.gjf nmol_natom 1_22

0 1
C-CP-0.03670 -0.74499 -0.00000 -0.00000
C-CA0--0.09434 -1.46124 -1.11952  0.43928
C-CA0--0.09434 -1.46124  1.11951 -0.43929
C-CA1--0.10688 -2.85169 -1.11959  0.44175
H-HA0-0.08905 -1.04513 -2.04802  0.81004
C-CP-0.03670  0.74499 -0.00000  0.00000
C-CA1--0.10688 -2.85168  1.11960 -0.44175
H-HA0-0.08905 -1.04512  2.04802 -0.81005
C-CA2--0.08099 -3.54332  0.00000 -0.00000
H-HA1-0.09433 -3.39506 -1.98972  0.78785
C-CA0--0.09434  1.46124 -1.11952 -0.43928
C-CA0--0.09434  1.46124  1.11951  0.43929
H-HA1-0.09433 -3.39506  1.98973 -0.78785
H-HA2-0.07994 -4.62597  0.00001  0.00000
C-CA1--0.10688  2.85169 -1.11959 -0.44175
H-HA0-0.08905  1.04513 -2.04802 -0.81004
C-CA1--0.10688  2.85168  1.11960  0.44175
H-HA0-0.08905  1.04512  2.04802  0.81005
C-CA2--0.08099  3.54332  0.00000  0.00000
H-HA1-0.09433  3.39506 -1.98972 -0.78785
H-HA1-0.09433  3.39506  1.98973  0.78785
H-HA2-0.07994  4.62597  0.00001 -0.00000

