pair_coeff 1 1 lj/charmm/coul/long   0.090813954246   3.432947171153
pair_coeff 2 2 lj/charmm/coul/long   0.095919260049   3.526765184476
pair_coeff 3 3 lj/charmm/coul/long   0.108950505326   3.789715551964
pair_coeff 4 4 lj/charmm/coul/long   0.105122417206   3.872295435740
pair_coeff 5 5 lj/charmm/coul/long   0.008280056575   2.526594335771
pair_coeff 6 6 lj/charmm/coul/long   0.008112418299   2.412651918133
pair_coeff 7 7 lj/charmm/coul/long   0.002549547111   2.163831986145
bond_coeff 1 harmonic 344.15868   1.08241
bond_coeff 2 harmonic 465.13086   1.34611
bond_coeff 3 harmonic 481.62712   1.34849
bond_coeff 4 harmonic 348.45264   1.46661
angle_coeff 1 harmonic  66.52221 117.77310
angle_coeff 2 harmonic  49.64618 127.54881
angle_coeff 3 harmonic  67.86177 118.50377
angle_coeff 4 harmonic  64.49567 120.95456
angle_coeff 5 harmonic  66.22699 121.07467
angle_coeff 6 harmonic  40.80156 114.05425
dihedral_coeff 1 fourier 4   0.00686 1   0.00000  3.71590 2 180.00000  0.06174 3   0.00000 -0.36349 4   0.00000
dihedral_coeff 2 fourier 4  -0.02233 1   0.00000  3.50288 2 180.00000 -0.20097 3   0.00000  0.48863 4   0.00000
dihedral_coeff 3 fourier 4   0.00617 1   0.00000  0.87876 2 180.00000  0.05551 3   0.00000  0.04573 4   0.00000
improper_coeff 1 cvff   1.10000 -1 2
