pair_coeff 1 1 lj/charmm/coul/long   0.090960840084   3.411497320307
pair_coeff 2 2 lj/charmm/coul/long   0.095315410219   3.457649599965
pair_coeff 3 3 lj/charmm/coul/long   0.096580097675   3.463931309585
pair_coeff 4 4 lj/charmm/coul/long   0.097201670341   3.494271872706
pair_coeff 5 5 lj/charmm/coul/long   0.017502960088   2.590195265866
pair_coeff 6 6 lj/charmm/coul/long   0.018390707295   2.555705873364
pair_coeff 7 7 lj/charmm/coul/long   0.017674946319   2.607957614121
bond_coeff 1 harmonic 344.30173   1.08515
bond_coeff 2 harmonic 478.54493   1.38249
angle_coeff 1 harmonic  48.44337 119.91918
angle_coeff 2 harmonic  67.11932 120.08813
dihedral_coeff 1 fourier 4  -0.00354 1   0.00000  3.43048 2 180.00000 -0.03185 3   0.00000  0.77773 4   0.00000
improper_coeff 1 cvff   1.10000 -1 2
