# amber(Print,SoftOnly) 

./data/antcen/res092/antcen_iniff92.gjf nmol_natom 1_24

0 1
C-CA1-0.22090  0.00834  0.00001 -0.00275
C-CA0--0.44266 -0.01102  0.00029  1.40032
C-CA1-0.22090  1.24379 -0.00018 -0.69372
C-CA1-0.22090  1.19460  0.00050  2.11829
H-HA0-0.18872 -0.96087  0.00032  1.93156
C-CA2--0.23251 -1.19375 -0.00007 -0.72687
C-CA0--0.44266  2.44941  0.00003  0.02425
C-CA2--0.23251  1.25604 -0.00061 -2.09700
C-CA1-0.22090  2.43005  0.00032  1.42732
C-CA2--0.23251  1.18235  0.00094  3.52157
C-CA3--0.07564 -1.17037 -0.00044 -2.12688
H-HA1-0.12050 -2.14951  0.00017 -0.20725
H-HA0-0.18872  3.39925  0.00000 -0.50699
C-CA3--0.07564  0.05092 -0.00080 -2.80993
H-HA1-0.12050  2.19908 -0.00083 -2.63937
C-CA2--0.23251  3.63214  0.00040  2.15144
C-CA3--0.07564  2.38747  0.00112  4.23450
H-HA1-0.12050  0.23931  0.00116  4.06394
H-HA2-0.09372 -2.10307 -0.00049 -2.68681
H-HA2-0.09372  0.06209 -0.00121 -3.89774
C-CA3--0.07564  3.60876  0.00077  3.55146
H-HA1-0.12050  4.58790  0.00016  1.63182
H-HA2-0.09372  2.37630  0.00153  5.32231
H-HA2-0.09372  4.54146  0.00081  4.11138

