pair_coeff 1 1 lj/charmm/coul/long   0.086000000000   3.399669508420
pair_coeff 2 2 lj/charmm/coul/long   0.086000000000   3.399669508420
pair_coeff 3 3 lj/charmm/coul/long   0.086000000000   3.399669508420
pair_coeff 4 4 lj/charmm/coul/long   0.086000000000   3.399669508420
pair_coeff 5 5 lj/charmm/coul/long   0.015000000000   2.599642459530
pair_coeff 6 6 lj/charmm/coul/long   0.015000000000   2.599642459530
pair_coeff 7 7 lj/charmm/coul/long   0.015000000000   2.599642459530
bond_coeff 1 harmonic 344.30000   1.08700
bond_coeff 2 harmonic 478.40000   1.38700
angle_coeff 1 harmonic  48.46000 120.01000
angle_coeff 2 harmonic  67.18000 119.97000
dihedral_coeff 1 fourier 4   0.00000 1   0.00000  3.62500 2 180.00000  0.00000 3   0.00000  0.00000 4   0.00000
improper_coeff 1 cvff   1.10000 -1 2
