pair_coeff 1 1 lj/charmm/coul/long 0.0150 2.59964245953 # Spellmeyer 
pair_coeff 3 3 lj/charmm/coul/long 0.01 0.1 #0.0000 0.0 # OPLS Jorgensen, JACS,110,(1988),1657 
pair_coeff 2 2 lj/charmm/coul/long 0.2104 3.06647338784 # OPLS 
pair_coeff 4 4 lj/charmm/coul/long 0.0860 3.39966950842 # OPLS 
bond_coeff 4 harmonic 478.4 1.3870 # SOURCE1 6228 0.0147 
bond_coeff 3 harmonic 344.3 1.0870 # SOURCE3 1496 0.0045 
bond_coeff 2 harmonic 386.1 1.3620 # SOURCE1 551 0.0000 
bond_coeff 1 harmonic 369.6 0.9740 # SOURCE3 367 0.0105 
angle_coeff 3 harmonic 67.18 119.97 # SOURCE3 1969 0.3480 
angle_coeff 2 harmonic 48.46 120.01 # SOURCE3 2980 0.2511 
angle_coeff 1 harmonic 69.85 119.94 # SOURCE3 14 0.1627 
angle_coeff 4 harmonic 48.85 109.47 # SOURCE3 7 1.0405 
dihedral_coeff 1 fourier 1 3.625 2 180.0 # intrpol.bsd.on C6H6 
dihedral_coeff 2 fourier 1 0.9 2 180.0 # Junmei et al, 99 
improper_coeff 1 cvff 1.1 -1 2 # bsd.on C6H6 nmodes 
