# amber(Print,SoftOnly) 

./data/acanil/res083/acanil_lat_iniff83.gjf nmol_natom 8_19

0 1
C-CA0-0.50115 11.62572  5.33453  2.90789
C-CA1--0.33661 11.91915  6.52106  3.59600
C-CA1--0.33661 12.64572  4.40166  2.68610
C-CA2--0.02468 13.22301  6.78109  4.02903
H-HA0-0.18930 11.14261  7.24602  3.80950
N-N--0.81562 10.32027  5.01488  2.43172
C-CA2--0.02468 13.95314  4.66529  3.11009
H-HA0-0.18930 12.43120  3.47267  2.16646
C-CA3--0.17880 14.24114  5.85856  3.77841
H-HA1-0.09783 13.44835  7.70291  4.55548
C-C-0.86225  9.30700  5.82900  2.08796
H-HN-0.38524 10.16943  4.02996  2.27761
H-HA1-0.09783 14.74608  3.95051  2.90895
H-HA2-0.11288 15.25440  6.07090  4.10682
C-C3--0.48253  8.10467  5.12058  1.52641
O-O--0.63692  9.34886  7.03634  2.18904
H-HC-0.13356  8.27691  4.88544  0.47613
H-HC-0.13356  7.22170  5.75509  1.60952
H-HC-0.13356  7.90651  4.18996  2.05850
C-CA0-0.50115 11.62792  8.73530  6.59445
C-CA1--0.33661 11.92473  7.57228  7.32029
C-CA1--0.33661 12.64538  9.66348  6.34325
C-CA2--0.02468 13.22904  7.33080  7.76264
H-HA0-0.18930 11.15068  6.85167  7.55631
N-N--0.81562 10.32170  9.03644  6.10822
C-CA2--0.02468 13.95305  9.41844  6.77736
H-HA0-0.18930 12.42870 10.57434  5.79342
C-CA3--0.17880 14.24425  8.24857  7.48444
H-HA1-0.09783 13.45704  6.42697  8.31808
C-C-0.86225  9.30825  8.21017  5.79563
H-HN-0.38524 10.17025 10.01498  5.91824
H-HA1-0.09783 14.74364 10.12940  6.55467
H-HA2-0.11288 15.25769  8.05076  7.82137
C-C3--0.48253  8.10423  8.89759  5.21185
O-O--0.63692  9.35118  7.00722  5.93919
H-HC-0.13356  8.27258  9.09153  4.15253
H-HC-0.13356  7.22100  8.26767  5.32290
H-HC-0.13356  7.90883  9.84841  5.70828
C-CA0-0.50115  7.95592 10.26513  1.11225
C-CA1--0.33661  7.65396 11.42181  0.37829
C-CA1--0.33661  6.94130  9.33688  1.37485
C-CA2--0.02468  6.34734 11.65729 -0.06135
H-HA0-0.18930  8.42635 12.14131  0.13304
N-N--0.81562  9.26571  9.96898  1.59226
C-CA2--0.02468  5.63221  9.57391  0.94054
H-HA0-0.18930  7.16152  8.43101  1.93170
C-CA3--0.17880  5.33582 10.73746  0.22509
H-HA1-0.09783  6.11540 12.55653 -0.62328
C-C-0.86225 10.27889 10.79904  1.89581
H-HN-0.38524  9.42197  8.99088  1.78079
H-HA1-0.09783  4.84479  8.86082  1.16825
H-HA2-0.11288  4.32119 10.92778 -0.11273
C-C3--0.48253 11.49087 10.11694  2.46893
O-O--0.63692 10.23131 12.00162  1.75065
H-HC-0.13356 11.33792  9.93113  3.53219
H-HC-0.13356 12.37116 10.74727  2.33947
H-HC-0.13356 11.68126  9.16265  1.97740
C-CA0-0.50115  7.95378  3.75064  4.96014
C-CA1--0.33661  7.64562  2.56958  4.26865
C-CA1--0.33661  6.94424  4.69372  5.18731
C-CA2--0.02468  6.33840  2.32651  3.83511
H-HA0-0.18930  8.41351  1.83670  4.05068
N-N--0.81562  9.26482  4.05755  5.43004
C-CA2--0.02468  5.63453  4.44920  4.75935
H-HA0-0.18930  7.16871  5.61782  5.71141
C-CA3--0.17880  5.33230  3.26255  4.08561
H-HA1-0.09783  6.10193  1.40913  3.30537
C-C-0.86225 10.27728  3.23515  5.75606
H-HN-0.38524  9.42384  5.04059  5.58798
H-HA1-0.09783  4.85132  5.17505  4.95948
H-HA2-0.11288  4.31744  3.06675  3.75192
C-C3--0.48253 11.49262  3.93134  6.30498
O-O--0.63692 10.22687  2.02885  5.64795
H-HC-0.13356 11.35361  4.12538  7.36872
H-HC-0.13356 12.37547  3.30603  6.16784
H-HC-0.13356 11.66959  4.88277  5.80280
C-CA0-0.50115 17.63852 10.30227  2.82656
C-CA1--0.33661 17.34035 11.48511  3.51919
C-CA1--0.33661 16.62179  9.36675  2.60091
C-CA2--0.02468 16.03588 11.73754  3.95490
H-HA0-0.18930 18.11356 12.21281  3.73527
N-N--0.81562 18.94520  9.98854  2.34935
C-CA2--0.02468 15.31387  9.62285  3.02755
H-HA0-0.18930 16.83899  8.44108  2.07671
C-CA3--0.17880 15.02173 10.81123  3.70256
H-HA1-0.09783 15.80695 12.65606  4.48535
C-C-0.86225 19.95877 10.80656  2.01596
H-HN-0.38524 19.09743  9.00513  2.18719
H-HA1-0.09783 14.52391  8.90569  2.82369
H-HA2-0.11288 14.00843 11.01691  4.03478
C-C3--0.48253 21.16370 10.10404  1.45253
O-O--0.63692 19.91538 12.01289  2.12725
H-HC-0.13356 20.98975  9.86397  0.40353
H-HC-0.13356 22.04280 10.74458  1.53032
H-HC-0.13356 21.36957  9.17685  1.98773
C-CA0-0.50115 21.30362  5.30728  1.19288
C-CA1--0.33661 21.60893  6.46775  0.46625
C-CA1--0.33661 22.31501  4.37289  1.44637
C-CA2--0.02468 22.91546  6.70048  0.02510
H-HA0-0.18930 20.83954  7.19260  0.22766
N-N--0.81562 19.99372  5.01243  1.67357
C-CA2--0.02468 23.62393  4.60678  1.00976
H-HA0-0.18930 22.09245  3.46436  1.99781
C-CA3--0.17880 23.92367  5.77418  0.30208
H-HA1-0.09783 23.14982  7.60276 -0.53076
C-C-0.86225 18.97965  5.84221  1.97505
H-HN-0.38524 19.83738  4.03461  1.86340
H-HA1-0.09783 24.40864  3.88809  1.22942
H-HA2-0.11288 24.93826  5.96244 -0.03718
C-C3--0.48253 17.76634  5.16077  2.54661
O-O--0.63692 19.02718  7.04474  1.82979
H-HC-0.13356 17.90025  5.01559  3.61869
H-HC-0.13356 16.87941  5.77205  2.37635
H-HC-0.13356 17.60001  4.18630  2.08655
C-CA0-0.50115 17.63450  3.78251  6.67538
C-CA1--0.33661 17.33880  2.62474  7.40994
C-CA1--0.33661 16.61545  4.70610  6.41409
C-CA2--0.02468 16.03395  2.38328  7.85085
H-HA0-0.18930 18.11439  1.90824  7.65342
N-N--0.81562 18.94115  4.08140  6.18887
C-CA2--0.02468 15.30719  4.46073  6.84622
H-HA0-0.18930 16.83129  5.61318  5.85769
C-CA3--0.17880 15.01716  3.29609  7.56232
H-HA1-0.09783 15.80665  1.48342  8.41306
C-C-0.86225 19.95203  3.25202  5.87602
H-HN-0.38524 19.09436  5.05947  5.99779
H-HA1-0.09783 14.51514  5.16705  6.61451
H-HA2-0.11288 14.00337  3.09843  7.89811
C-C3--0.48253 21.15587  3.93589  5.28830
O-O--0.63692 19.90682  2.04950  6.02266
H-HC-0.13356 20.96832  4.17072  4.24051
H-HC-0.13356 22.02842  3.28553  5.35632
H-HC-0.13356 21.38049  4.86408  5.81395
C-CA0-0.50115 21.30766  8.71330  4.87870
C-CA1--0.33661 21.60631  7.52799  4.19052
C-CA1--0.33661 22.32415  9.64988  5.10185
C-CA2--0.02468 22.91171  7.27297  3.75846
H-HA0-0.18930 20.83238  6.80070  3.97510
N-N--0.81562 19.99941  9.03030  5.34939
C-CA2--0.02468 23.63221  9.39343  4.67529
H-HA0-0.18930 22.10621 10.57767  5.62235
C-CA3--0.17880 23.92548  8.20132  4.00707
H-HA1-0.09783 23.14086  6.35174  3.23209
C-C-0.86225 18.98341  8.21527  5.68302
H-HN-0.38524 19.84624 10.01500  5.50269
H-HA1-0.09783 24.42129 10.11383  4.87266
H-HA2-0.11288 24.93942  7.99538  3.67629
C-C3--0.48253 17.77332  8.92112  6.23119
O-O--0.63692 19.02695  7.00804  5.58183
H-HC-0.13356 17.91025  9.10689  7.29657
H-HC-0.13356 16.88436  8.30630  6.08640
H-HC-0.13356 17.60864  9.87777  5.73484
Tv 19.44011 -0.01054 -0.00220
Tv  0.00709  9.92688 -0.16675
Tv  0.00088  0.13692  7.48217

