# amber(Print,SoftOnly) 

./data/acanil/res083/acanil_lat_optff83.gjf nmol_natom 8_19

0 1
C-CA0-0.49781 11.37752  5.38955  2.73426
C-CA1--0.35097 11.67910  6.49785  3.51172
C-CA1--0.35097 12.42980  4.53663  2.44945
C-CA2--0.04394 12.96134  6.72987  3.99373
H-HA0-0.18300 10.89002  7.17903  3.79076
N-N--0.80501 10.09959  5.14180  2.19413
C-CA2--0.04394 13.71162  4.75873  2.93884
H-HA0-0.18300 12.24988  3.65136  1.85839
C-CA3--0.19027 14.00431  5.87385  3.69897
H-HA1-0.09003 13.15589  7.61860  4.57761
C-C-0.85734  9.11737  6.07460  1.95023
H-HN-0.42484 10.24927  4.42173  1.51132
H-HA1-0.09003 14.50515  4.07312  2.67508
H-HA2-0.10172 15.00314  6.05594  4.07221
C-C3--0.47247  7.88052  5.36967  1.40808
O-O--0.67570  8.88982  6.91562  2.78007
H-HC-0.16851  7.79564  5.57140  0.33796
H-HC-0.16851  7.01902  5.60471  2.03877
H-HC-0.16851  8.02417  4.28611  1.47605
C-CA0-0.49781 11.36878  8.64899  6.74655
C-CA1--0.35097 11.67585  7.53034  7.50703
C-CA1--0.35097 12.41702  9.51101  6.47477
C-CA2--0.04394 12.95920  7.29739  7.98589
H-HA0-0.18300 10.89055  6.84004  7.77404
N-N--0.80501 10.08945  8.89986  6.21086
C-CA2--0.04394 13.70020  9.28725  6.95950
H-HA0-0.18300 12.23289 10.40455  5.89796
C-CA3--0.19027 13.99836  8.16197  7.70234
H-HA1-0.09003 13.15805  6.40101  8.55669
C-C-0.85734  9.10855  7.96785  5.95867
H-HN-0.42484 10.23659  9.62786  5.53601
H-HA1-0.09003 14.49028  9.98027  6.70508
H-HA2-0.10172 14.99874  7.97796  8.07036
C-C3--0.47247  7.86908  8.67544  5.42637
O-O--0.67570  8.88407  7.11767  6.77996
H-HC-0.16851  7.78268  8.48488  4.35433
H-HC-0.16851  7.00940  8.43131  6.05613
H-HC-0.16851  8.01012  9.75858  5.50567
C-CA0-0.49781  8.13182 10.01291  1.04783
C-CA1--0.35097  7.82337 11.13412  0.29161
C-CA1--0.35097  7.08417  9.14964  1.31783
C-CA2--0.04394  6.53989 11.36740 -0.18637
H-HA0-0.18300  8.60795 11.82551  0.02557
N-N--0.80501  9.41085  9.76331  1.58495
C-CA2--0.04394  5.80049  9.37496  0.83533
H-HA0-0.18300  7.26949  8.25278  1.88914
C-CA3--0.19027  5.50093 10.50293  0.09738
H-HA1-0.09003  6.33978 12.26603 -0.75318
C-C-0.85734 10.39131 10.69641  1.83551
H-HN-0.42484  9.26342  9.03680  2.26132
H-HA1-0.09003  5.01047  8.68203  1.08985
H-HA2-0.10172  4.50019 10.68790 -0.26914
C-C3--0.47247 11.63130  9.99127  2.36991
O-O--0.67570 10.61582 11.54477  1.01234
H-HC-0.16851 11.71710 10.18471  3.44145
H-HC-0.16851 12.49076 10.23473  1.73957
H-HC-0.16851 11.49109  8.90785  2.29312
C-CA0-0.49781  8.12400  4.04300  5.02263
C-CA1--0.35097  7.82327  2.93305  4.24719
C-CA1--0.35097  7.07100  4.89541  5.30620
C-CA2--0.04394  6.54178  2.70037  3.76378
H-HA0-0.18300  8.61242  2.25099  3.97070
N-N--0.80501  9.40180  4.29271  5.56198
C-CA2--0.04394  5.78951  4.67135  4.81709
H-HA0-0.18300  7.24992  5.78199  5.89558
C-CA3--0.19027  5.49780  3.55493  4.05871
H-HA1-0.09003  6.34764  1.81025  3.18182
C-C-0.85734 10.38429  3.36081  5.80826
H-HN-0.42484  9.25188  5.01475  6.24270
H-HA1-0.09003  4.99505  5.35564  5.08128
H-HA2-0.10172  4.49920  3.37147  3.68561
C-C3--0.47247 11.62140  4.06708  6.34824
O-O--0.67570 10.61170  2.51770  4.98052
H-HC-0.16851 11.70658  3.86827  7.41887
H-HC-0.16851 12.48258  3.83012  5.71786
H-HC-0.16851 11.47759  5.15043  6.27728
C-CA0-0.49781 17.88474 10.00455  2.75580
C-CA1--0.35097 17.58350 11.11578  3.52917
C-CA1--0.35097 16.83214  9.15095  2.47405
C-CA2--0.04394 16.30155 11.34963  4.01102
H-HA0-0.18300 18.37262 11.79831  3.80477
N-N--0.80501 19.16263  9.75466  2.21653
C-CA2--0.04394 15.55038  9.37512  2.96268
H-HA0-0.18300 17.01168  8.26347  1.88626
C-CA3--0.19027 15.25816 10.49317  3.71873
H-HA1-0.09003 16.10734 12.24084  4.59140
C-C-0.85734 20.14507 10.68642  1.96952
H-HN-0.42484 19.01272  9.03226  1.53619
H-HA1-0.09003 14.75661  8.68879  2.70139
H-HA2-0.10172 14.25927 10.67729  4.09075
C-C3--0.47247 21.38180  9.97968  1.42945
O-O--0.67570 20.37279 11.52996  2.79676
H-HC-0.16851 21.46666 10.17795  0.35869
H-HC-0.16851 22.24335 10.21678  2.05931
H-HC-0.16851 21.23811  8.89634  1.50087
C-CA0-0.49781 21.12911  5.39810  1.02941
C-CA1--0.35097 21.43462  6.51556  0.26652
C-CA1--0.35097 22.17842  4.53792  1.30266
C-CA2--0.04394 22.71715  6.74821 -0.21439
H-HA0-0.18300 20.64861  7.20457 -0.00156
N-N--0.80501 19.85052  5.14739  1.56671
C-CA2--0.04394 23.46102  4.76246  0.81701
H-HA0-0.18300 21.99564  3.64504  1.88098
C-CA3--0.19027 23.75766  5.88637  0.07177
H-HA1-0.09003 22.91510  7.64365 -0.78685
C-C-0.85734 18.87028  6.07974  1.82019
H-HN-0.42484 19.99839  4.41928  2.24128
H-HA1-0.09003 24.25241  4.07211  1.07423
H-HA2-0.10172 24.75751  6.07052 -0.29758
C-C3--0.47247 17.63091  5.37283  2.35375
O-O--0.67570 18.64524  6.93009  0.99926
H-HC-0.16851 17.54582  5.56331  3.42589
H-HC-0.16851 16.77081  5.61763  1.72487
H-HC-0.16851 17.77150  4.28968  2.27401
C-CA0-0.49781 17.89327  4.03491  6.73089
C-CA1--0.35097 17.58458  2.91272  7.48549
C-CA1--0.35097 16.84627  4.90002  6.46403
C-CA2--0.04394 16.30090  2.67884  7.96289
H-HA0-0.18300 18.36901  2.22034  7.74961
N-N--0.80501 19.17228  4.28506  6.19392
C-CA2--0.04394 15.56270  4.67521  6.94723
H-HA0-0.18300 17.03199  5.79745  5.89383
C-CA3--0.19027 15.26281  3.54597  7.68334
H-HA1-0.09003 16.10094  1.77967  8.52894
C-C-0.85734 20.15283  3.35248  5.94194
H-HN-0.42484 19.02477  5.01242  5.51848
H-HA1-0.09003 14.77367  5.37089  6.69695
H-HA2-0.10172 14.26212  3.36115  8.05012
C-C3--0.47247 21.39215  4.05908  5.40806
O-O--0.67570 20.37783  2.50308  6.76391
H-HC-0.16851 21.47773  3.86721  4.33622
H-HC-0.16851 22.25208  3.81538  6.03769
H-HC-0.16851 21.25158  5.14237  5.48625
C-CA0-0.49781 21.13742  8.65714  5.04236
C-CA1--0.35097 21.43785  7.54958  4.26335
C-CA1--0.35097 22.19066  9.50825  5.32878
C-CA2--0.04394 22.71939  7.31795  3.77951
H-HA0-0.18300 20.64828  6.86940  3.98345
N-N--0.80501 19.86026  8.90441  5.58438
C-CA2--0.04394 23.47211  9.28535  4.83898
H-HA0-0.18300 22.01168 10.39335  5.92041
C-CA3--0.19027 23.76360  8.17122  4.07717
H-HA1-0.09003 22.91338  6.42973  3.19475
C-C-0.85734 18.87841  7.97122  5.82831
H-HN-0.42484 20.01085  9.62365  6.26786
H-HA1-0.09003 24.26691  9.96815  5.10592
H-HA2-0.10172 24.76208  7.98874  3.70326
C-C3--0.47247 17.64184  8.67501  6.37269
O-O--0.67570 18.65014  7.13120  4.99768
H-HC-0.16851 17.55827  8.47187  7.44264
H-HC-0.16851 16.77982  8.44039  5.74258
H-HC-0.16851 17.78528  9.75865  6.30581
Tv 19.48024 -0.00080 -0.00243
Tv -0.00021  9.22902  0.04302
Tv  0.00137 -0.05126  7.99498

