pair_coeff 1 1 lj/charmm/coul/long   0.086000000000   3.399669508420
pair_coeff 2 2 lj/charmm/coul/long   0.086000000000   3.399669508420
pair_coeff 3 3 lj/charmm/coul/long   0.086000000000   3.399669508420
pair_coeff 4 4 lj/charmm/coul/long   0.086000000000   3.399669508420
pair_coeff 5 5 lj/charmm/coul/long   0.015000000000   2.599642459530
pair_coeff 6 6 lj/charmm/coul/long   0.015000000000   2.599642459530
pair_coeff 7 7 lj/charmm/coul/long   0.015000000000   2.599642459530
pair_coeff 8 8 lj/charmm/coul/long   0.170000000000   3.249998523780
pair_coeff 9 9 lj/charmm/coul/long   0.015700000000   1.069078461770
pair_coeff 10 10 lj/charmm/coul/long   0.086000000000   3.399669508420
pair_coeff 11 11 lj/charmm/coul/long   0.210000000000   2.959921901150
pair_coeff 12 12 lj/charmm/coul/long   0.109400000000   3.399669508420
pair_coeff 13 13 lj/charmm/coul/long   0.015700000000   2.649532787750
bond_coeff 1 harmonic 337.30000   1.09200
bond_coeff 2 harmonic 410.20000   1.00900
bond_coeff 3 harmonic 478.20000   1.34500
bond_coeff 4 harmonic 344.30000   1.08700
bond_coeff 5 harmonic 328.30000   1.50800
bond_coeff 6 harmonic 372.30000   1.42200
bond_coeff 7 harmonic 648.00000   1.21400
bond_coeff 8 harmonic 478.40000   1.38700
angle_coeff 1 harmonic  49.21000 118.46000
angle_coeff 2 harmonic  67.18000 119.97000
angle_coeff 3 harmonic  75.83000 122.03000
angle_coeff 4 harmonic  39.43000 108.35000
angle_coeff 5 harmonic  47.20000 109.68000
angle_coeff 6 harmonic  64.29000 123.71000
angle_coeff 7 harmonic  48.46000 120.01000
angle_coeff 8 harmonic  67.97000 119.89000
angle_coeff 9 harmonic  67.86000 115.15000
angle_coeff 10 harmonic  68.03000 123.11000
angle_coeff 11 harmonic  47.36000 115.94000
dihedral_coeff 1 fourier 4   0.80000 1   0.00000  0.00000 2   0.00000  0.08000 3 180.00000  0.00000 4   0.00000
dihedral_coeff 2 fourier 4   0.00000 1   0.00000  3.62500 2 180.00000  0.00000 3   0.00000  0.00000 4   0.00000
dihedral_coeff 3 fourier 4   0.00000 1   0.00000  0.45000 2 180.00000  0.00000 3   0.00000  0.00000 4   0.00000
dihedral_coeff 4 fourier 4   0.00000 1   0.00000  0.00000 2 180.00000  0.00000 3   0.00000  0.00000 4   0.00000
dihedral_coeff 5 fourier 4   0.00000 1   0.00000  2.50000 2 180.00000  0.00000 3   0.00000  0.00000 4   0.00000
dihedral_coeff 6 fourier 4   2.00000 1   0.00000  2.50000 2 180.00000  0.00000 3   0.00000  0.00000 4   0.00000
improper_coeff 1 cvff  10.50000 -1 2
improper_coeff 2 cvff   1.10000 -1 2
improper_coeff 3 cvff   1.10000 -1 2
