pair_coeff 1 1 lj/charmm/coul/long   0.103454219901   3.754327837687
pair_coeff 2 2 lj/charmm/coul/long   0.086181906627   3.164299763329
pair_coeff 3 3 lj/charmm/coul/long   0.095419741858   3.953791470925
pair_coeff 4 4 lj/charmm/coul/long   0.101897967878   3.862192718852
pair_coeff 5 5 lj/charmm/coul/long   0.030000000000   1.871138746892
pair_coeff 6 6 lj/charmm/coul/long   0.020905896964   2.275807866728
pair_coeff 7 7 lj/charmm/coul/long   0.022450582556   2.702212015456
pair_coeff 8 8 lj/charmm/coul/long   0.214025561796   3.532485732718
pair_coeff 9 9 lj/charmm/coul/long   0.019005323864   1.135591984905
pair_coeff 10 10 lj/charmm/coul/long   0.093927029465   3.616705288897
pair_coeff 11 11 lj/charmm/coul/long   0.243032994506   2.913710478227
pair_coeff 12 12 lj/charmm/coul/long   0.131188828961   3.529235012316
pair_coeff 13 13 lj/charmm/coul/long   0.031400000000   1.973706302333
bond_coeff 1 harmonic 337.26253   1.09445
bond_coeff 2 harmonic 410.31236   1.00692
bond_coeff 3 harmonic 478.19561   1.37275
bond_coeff 4 harmonic 344.29732   1.08181
bond_coeff 5 harmonic 328.70848   1.52423
bond_coeff 6 harmonic 372.43208   1.40129
bond_coeff 7 harmonic 647.98976   1.20253
bond_coeff 8 harmonic 480.36757   1.34534
angle_coeff 1 harmonic  55.82611 122.84415
angle_coeff 2 harmonic  66.97479 119.80443
angle_coeff 3 harmonic  78.47873 123.28253
angle_coeff 4 harmonic  37.50204 110.23789
angle_coeff 5 harmonic  53.60285 108.36408
angle_coeff 6 harmonic  64.64142 123.10589
angle_coeff 7 harmonic  42.75507 119.42383
angle_coeff 8 harmonic  76.69109 122.05387
angle_coeff 9 harmonic  65.71758 113.29663
angle_coeff 10 harmonic  65.71454 122.70981
angle_coeff 11 harmonic  43.80334 113.11805
dihedral_coeff 1 fourier 4   4.33552 1   0.00000  2.05709 2   0.00000 10.38842 3 180.00000  4.48332 4   0.00000
dihedral_coeff 2 fourier 4   0.13874 1   0.00000  5.09773 2 180.00000  0.73179 3   0.00000  0.96118 4   0.00000
dihedral_coeff 3 fourier 4   0.08860 1   0.00000  0.69312 2 180.00000 -0.12493 3   0.00000 -0.03579 4   0.00000
dihedral_coeff 4 fourier 4  -3.49518 1   0.00000 -2.27351 2 180.00000 -7.85836 3   0.00000 -0.73811 4   0.00000
dihedral_coeff 5 fourier 4   1.44897 1   0.00000  2.88630 2 180.00000  4.14557 3   0.00000  0.66533 4   0.00000
dihedral_coeff 6 fourier 4   1.29175 1   0.00000  4.90327 2 180.00000  1.91196 3   0.00000 -3.35904 4   0.00000
improper_coeff 1 cvff  10.50000 -1 2
improper_coeff 2 cvff   1.10000 -1 2
improper_coeff 3 cvff   1.10000 -1 2
