# am1

ANTCEN nmol_natom 2_24

0 1
 C                  0.37756400   -0.48485100   -1.27036200
 C                 -0.45059700   -1.26411600   -0.43565200
 C                  0.83249100    0.78898500   -0.82661800
 C                 -0.83249100   -0.78898600    0.82661800
 H                 -0.78121000   -2.27246200   -0.78331000
 C                  0.77055700   -0.95249500   -2.58118100
 C                  0.45059700    1.26411600    0.43565200
 C                  1.68648600    1.56643800   -1.68688900
 C                 -0.37756400    0.48485100    1.27036200
 C                 -1.68648600   -1.56643800    1.68688900
 C                  1.58054600   -0.16375100   -3.36182500
 H                  0.43399236   -1.90293145   -2.93936363
 H                  0.78121000    2.27246200    0.78331000
 C                  2.04444100    1.09046300   -2.91100100
 H                  1.94507900    2.59899700   -1.31633600
 C                 -0.77055700    0.95249500    2.58118100
 C                 -2.04444100   -1.09046300    2.91100100
 H                 -1.94507900   -2.59899700    1.31633600
 H                  1.86613788   -0.50828685   -4.33374697
 H                  2.68499336    1.67410616   -3.53865802
 C                 -1.58054600    0.16375100    3.36182500
 H                 -0.43399236    1.90293145    2.93936363
 H                 -2.68499336   -1.67410616    3.53865802
 H                 -1.86613788    0.50828685    4.33374697
 C                  3.90343600    2.53414900    1.27036200
 C                  4.73159700    1.75488400    0.43565200
 C                  3.44850900    3.80798600    0.82661800
 C                  5.11349100    2.23001500   -0.82661800
 H                  5.06221100    0.74653800    0.78331000
 C                  3.51044300    2.06650500    2.58118100
 C                  3.83040300    4.28311600   -0.43565200
 C                  2.59451400    4.58543800    1.68688900
 C                  4.65856500    3.50385100   -1.27036200
 C                  5.96748600    1.45256200   -1.68688900
 C                  2.70045400    2.85525000    3.36182500
 H                  3.84700724    1.11606844    2.93936373
 H                  3.49979000    5.29146200   -0.78331000
 C                  2.23655900    4.10946300    2.91100100
 H                  2.33592100    5.61799700    1.31633600
 C                  5.05155700    3.97149500   -2.58118100
 C                  6.32544000    1.92853700   -2.91100100
 H                  6.22607900    0.42000300   -1.31633600
 H                  2.41486251    2.51071472    4.33374729
 H                  1.59600636    4.69310604    3.53865785
 C                  5.86154700    3.18275000   -3.36182500
 H                  4.71499169    4.92193106   -2.93936405
 H                  6.96599115    1.34489301   -3.53865848
 H                  6.14714022    3.52728580   -4.33374660
 Tv                 8.56200000    0.00000000    0.00000000
 Tv                 0.00000000    6.03800000    0.00000000
 Tv                -6.36682219    0.00000000    9.19485895
