%nprocshared=32
%mem=120GB
%chk=pencen.chk
#p opt freq wb97xd/6-311++g(d,p) scf=maxcycle=512

pencen.gjf nmol_natom 1_36

0 1
 C                  1.21949500   -0.72180700   -0.00006000
 C                  0.00000800   -1.40171400   -0.00016200
 C                  1.21946800    0.72178100    0.00003900
 C                 -1.21947800   -0.72177700   -0.00002600
 C                  2.45899000   -1.40195200   -0.00009600
 C                  2.45897800    1.40192900    0.00011000
 C                  0.00000200    1.40171700    0.00017000
 C                 -2.45896700   -1.40192300   -0.00007500
 C                 -1.21950700    0.72180600    0.00006000
 C                  3.65871200   -0.72285600   -0.00002400
 C                  3.65869300    0.72284300    0.00000100
 C                 -3.65870200   -0.72284100    0.00002900
 C                 -2.45898100    1.40194900    0.00006200
 C                  4.92383600   -1.40662100    0.00002100
 C                  4.92380000    1.40662500   -0.00002100
 C                 -3.65872100    0.72285400   -0.00001300
 C                 -4.92379100   -1.40662300    0.00014500
 C                  6.08974600   -0.71707600    0.00003800
 C                  6.08973800    0.71710800   -0.00002300
 C                 -4.92382800    1.40661300   -0.00015000
 C                 -6.08973700   -0.71709500    0.00010500
 C                 -6.08975300    0.71706000   -0.00013000
 H                  0.00000700   -2.48770100   -0.00019100
 H                  2.45934200   -2.48801700   -0.00004100
 H                  2.45934700    2.48799200    0.00001700
 H                 -0.00000400    2.48770400    0.00019900
 H                 -2.45934200   -2.48798600    0.00005400
 H                 -2.45933800    2.48801500   -0.00002000
 H                  4.92268800   -2.49179300    0.00005600
 H                  4.92267000    2.49180400   -0.00006400
 H                 -4.92267600   -2.49180000    0.00031000
 H                  7.03619800   -1.24584700    0.00013200
 H                  7.03619500    1.24587200   -0.00017700
 H                 -4.92269800    2.49178500   -0.00031700
 H                 -7.03618200   -1.24588600    0.00040700
 H                 -7.03621300    1.24585500   -0.00036200

