# am1

PENCEN nmol_natom 2_36

0 1
 C                 -0.58263800   -0.90363600    0.82223900
 C                 -0.61762000   -1.17040400   -0.48580300
 C                 -0.09040600    0.30321000    1.37764900
 C                  0.09040600   -0.30321000   -1.37764900
 C                 -1.28347900   -1.75532100    1.77644200
 C                 -0.08560600    0.45583300    2.74659800
 C                  0.61762000    1.17040400    0.48580300
 C                  0.08560600   -0.45583300   -2.74659700
 C                  0.58263800    0.90363700   -0.82223900
 C                 -1.27097000   -1.53049900    3.11638800
 C                 -0.70255700   -0.35184700    3.63699400
 C                  0.70255700    0.35184600   -3.63699400
 C                  1.28347900    1.75532100   -1.77644300
 C                 -1.95108900   -2.38826800    4.04013800
 C                 -0.73892700   -0.17531800    5.06249800
 C                  1.27097100    1.53050000   -3.11638700
 C                  0.73892700    0.17531800   -5.06249800
 C                 -1.95002000   -2.14719500    5.37428200
 C                 -1.32422900   -1.05305600    5.90358900
 C                  1.95108800    2.38826800   -4.04013700
 C                  1.32422800    1.05305600   -5.90358900
 C                  1.95002000    2.14719500   -5.37428200
 H                 -1.06515700   -2.01346600   -0.88459600
 H                 -1.74206200   -2.66739500    1.42115400
 H                  0.39700800    1.31690400    3.16134200
 H                  1.06515700    2.01346600    0.88459600
 H                 -0.39700800   -1.31690400   -3.16134300
 H                  1.74206200    2.66739500   -1.42115400
 H                 -2.40530700   -3.29813000    3.63989400
 H                 -0.20256600    0.71924600    5.36558100
 H                  0.20256600   -0.71924600   -5.36558200
 H                 -2.44409800   -2.84442300    6.09066000
 H                 -1.33112500   -0.85194600    6.98975700
 H                  2.40530700    3.29813000   -3.63989400
 H                  1.33112500    0.85194600   -6.98975700
 H                  2.45098474    2.82966026   -6.02863320
 C                  3.54843900    3.42188500    1.22683300
 C                  3.59776500    4.28542700    0.14501600
 C                  4.14586300    2.07746600    1.09341800
 C                  4.19796000    3.96625900   -1.09341800
 C                  2.89357700    3.75472500    2.44496500
 C                  4.03068500    1.23389300    2.15058300
 C                  4.74605800    1.75829800   -0.14501600
 C                  4.31313800    4.80983300   -2.15058300
 C                  4.79538400    2.62184000   -1.22683200
 C                  2.87915500    2.85555800    3.52968200
 C                  3.50934300    1.53773000    3.39626800
 C                  4.83448000    4.50599500   -3.39626800
 C                  5.45024600    2.28900100   -2.44496400
 C                  2.25793800    3.17348400    4.76521600
 C                  3.38416900    0.66884800    4.48678600
 C                  5.46466700    3.18816800   -3.52968200
 C                  4.95965500    5.37487800   -4.48678600
 C                  2.23013300    2.31750500    5.82093000
 C                  2.87171900    0.98552400    5.69186700
 C                  6.08588500    2.87024200   -4.76521600
 C                  5.47210500    5.05820200   -5.69186700
 C                  6.11368900    3.72622100   -5.82093000
 H                  3.13041900    5.30361700    0.29003100
 H                  2.46020100    4.76737700    2.58128000
 H                  4.48919200    0.22265400    2.05922300
 H                  5.21340300    0.74010900   -0.29003100
 H                  3.85463000    5.82107200   -2.05922300
 H                  5.88362300    1.27634900   -2.58127900
 H                  1.84877100    4.19773300    4.85802700
 H                  3.84087600   -0.33710700    4.40847700
 H                  4.50294800    6.38083200   -4.40847800
 H                  1.73959700    2.63716100    6.88824600
 H                  2.86050000    0.30673100    6.56921100
 H                  6.49505200    1.84599300   -4.85802700
 H                  5.48332300    5.73699500   -6.56921100
 H                  6.59279459    3.44278768   -6.73472614
 Tv                 7.90000000    0.00000000    0.00000000
 Tv                 0.44382347    6.04372573    0.00000000
 Tv                -6.15256812   -2.85840232   14.50157032
