pair_coeff 1 1 lj/charmm/coul/charmm 0.0150 2.59964245953 # Spellmeyer 
pair_coeff 2 2 lj/charmm/coul/charmm 0.0860 3.39966950842 # OPLS 
bond_coeff 2 harmonic 478.4 1.3870 # SOURCE1 6228 0.0147 
bond_coeff 1 harmonic 344.3 1.0870 # SOURCE3 1496 0.0045 
angle_coeff 2 harmonic 67.18 119.97 # SOURCE3 1969 0.3480 
angle_coeff 1 harmonic 48.46 120.01 # SOURCE3 2980 0.2511 
dihedral_coeff 1 fourier 1 3.625 2 180.0 # intrpol.bsd.on C6H6 
improper_coeff 1 cvff 1.1 -1 2 # bsd.on C6H6 nmodes 
