%nprocshared=32
%mem=120GB
%chk=_conf024.chk
#P wB97XD/6-311++G(d,p) scf=maxcycle=512

_conf024.gjf nmol_natom 1_24 

0 1
C 
C    1     1.39746343 
C    1     1.39996263    2   119.28066518 
C    2     1.39288453    1   120.37436646    3    -0.51002981 
H    2     0.95014703    1   119.82324024    3   179.45634896 
C    1     1.49653039    2   122.77761373    4   174.46828757 
C    3     1.38701250    1   120.10017821    2    -0.37315804 
H    3     0.95010920    1   119.95246451    2   179.59238840 
C    7     1.38720039    3   120.16568731    1     1.07451060 
H    4     0.95011919    2   120.18755644    1  -179.31195299 
C    6     1.49516902    1   120.70972921    2    30.00000000 
O    6     1.22150059    1   119.67074267    2  -150.00000000 
H    7     0.94956661    3   119.91274826    1  -178.88636029 
H    9     0.94992259    7   119.76037934    3   179.10763853 
C   11     1.39713972    6   122.62585705    1    30.97749054 
C   11     1.40039562    6   117.74753532    1  -153.15467779 
C   15     1.39455701   11   119.80747484    6   175.47630480 
H   15     0.94962854   11   120.10535689    6    -4.50802339 
C   16     1.38466431   11   120.46173770    6  -176.88197195 
H   16     0.94974640   11   119.75779177    6     3.14699974 
C   17     1.39088945   15   120.34752730   11     0.79736430 
H   17     0.94984298   15   119.81564510   11  -179.16676483 
H   19     0.94974749   16   119.98566335   11  -178.40987425 
H   21     0.94938585   17   120.07445290   15   179.91636093 

