%nprocshared=32
%mem=120GB
%chk=benzac.chk
#p opt freq wb97xd/6-311++g(d,p) scf=maxcycle=512

zmat_benzac.gjf nmol_natom 1_15

0 1
 C                  0.21702000    0.02998200    0.00002800
 C                 -0.44613700   -1.19708800   -0.00047100
 C                 -0.51216300    1.21861200    0.00054900
 C                 -1.83405600   -1.23050800   -0.00061400
 H                  0.12564400   -2.11635400   -0.00084100
 C                  1.70079300    0.12201900   -0.00012600
 C                 -1.89856300    1.18031500    0.00062200
 H                  0.02290900    2.16072500    0.00088800
 C                 -2.55956200   -0.04406200   -0.00003500
 H                 -2.35054700   -2.18341300   -0.00114500
 O                  2.30463200   -1.08216200    0.00130600
 O                  2.32689900    1.15090500   -0.00137400
 H                 -2.46506700    2.10427800    0.00109300
 H                 -3.64350700   -0.07354800   -0.00005300
 H                  3.25432900   -0.91725500    0.00087700

