pair_coeff 1 1 lj/charmm/coul/long   0.090854544798   3.488330362113
pair_coeff 2 2 lj/charmm/coul/long   0.097322044838   3.573575274062
pair_coeff 3 3 lj/charmm/coul/long   0.095770613556   3.471643022444
pair_coeff 4 4 lj/charmm/coul/long   0.104792167348   3.965625805778
pair_coeff 5 5 lj/charmm/coul/long   0.029999998662   1.981168263428
pair_coeff 6 6 lj/charmm/coul/long   0.092343894625   3.564725265195
pair_coeff 7 7 lj/charmm/coul/long   0.096989666937   3.515088151841
pair_coeff 8 8 lj/charmm/coul/long   0.001820133712   2.459032557163
pair_coeff 9 9 lj/charmm/coul/long   0.098598383226   3.701155081553
pair_coeff 10 10 lj/charmm/coul/long   0.012029391550   2.809446126214
pair_coeff 11 11 lj/charmm/coul/long   0.209673103821   2.691283396360
pair_coeff 12 12 lj/charmm/coul/long   0.001037675943   2.579190776722
pair_coeff 13 13 lj/charmm/coul/long   0.002778951372   2.530911880053
bond_coeff 1 harmonic 350.90903   1.47293
bond_coeff 2 harmonic 647.94181   1.22389
bond_coeff 3 harmonic 344.31635   1.08224
bond_coeff 4 harmonic 479.74839   1.34990
angle_coeff 1 harmonic  67.00716 120.13616
angle_coeff 2 harmonic  61.81442 120.51080
angle_coeff 3 harmonic  47.95625 121.52788
angle_coeff 4 harmonic  66.79462 121.29760
angle_coeff 5 harmonic  62.44708 117.96355
dihedral_coeff 1 fourier 4  -0.09179 1   0.00000  4.76434 2 180.00000 -0.84674 3   0.00000 -4.46595 4   0.00000
dihedral_coeff 2 fourier 4  -0.01273 1   0.00000  1.23027 2 180.00000 -0.72322 3   0.00000  0.02868 4   0.00000
improper_coeff 1 cvff  10.50000 -1 2
improper_coeff 2 cvff   1.10000 -1 2
