# amber(Print,SoftOnly) 

./data/bpheno/res090/bpheno_lat_optff90.gjf nmol_natom 4_24

0 1
C-CA0--0.06446  1.95240  5.73015  9.65676
C-CA1--0.00004  1.47665  5.08977 10.80140
C-CA2--0.08258  2.68261  5.01864  8.71208
C-CA3--0.14725  1.71828  3.74262 11.02102
H-HA0-0.03700  0.90540  5.64628 11.53212
C-C-0.47863  1.68024  7.18035  9.40518
C-CA4--0.11051  2.92523  3.67361  8.93866
H-HA1-0.11977  3.05495  5.50130  7.81735
C-CA5--0.08036  2.45000  3.03866 10.07901
H-HA2-0.12416  1.34305  3.25264 11.90943
C-CA0--0.06446  1.54187  8.21825 10.47639
O-O--0.50008  1.56736  7.54437  8.23832
H-HA3-0.11064  3.49232  3.10706  8.21309
H-HA4-0.10437  2.65199  1.98607 10.23084
C-CA1--0.00004  2.12824  8.05739 11.73259
C-CA2--0.08258  0.81951  9.36997 10.18773
C-CA3--0.14725  2.00072  9.03224 12.71028
H-HA0-0.03700  2.69558  7.16264 11.95397
C-CA4--0.11051  0.69413 10.34021 11.16833
H-HA1-0.11977  0.36364  9.50812  9.21611
C-CA5--0.08036  1.27852 10.17579 12.41744
H-HA2-0.12416  2.45850  8.90322 13.68223
H-HA3-0.11064  0.13325 11.24173 10.95734
H-HA4-0.10437  1.16824 10.94893 13.16709
C-CA0--0.06446  5.80151  0.60848  8.40603
C-CA1--0.00004  6.27388 -0.02573  7.25663
C-CA2--0.08258  5.08208 -0.11048  9.35337
C-CA3--0.14725  6.03945 -1.37377  7.03467
H-HA0-0.03700  6.83674  0.53652  6.52383
C-C-0.47863  6.06597  2.05984  8.65986
C-CA4--0.11051  4.84685 -1.45648  9.12486
H-HA1-0.11977  4.71237  0.36718 10.25176
C-CA5--0.08036  5.31865 -2.08510  7.97957
H-HA2-0.12416  6.41199 -1.85873  6.14240
C-CA0--0.06446  6.19563  3.10116  7.59042
O-O--0.50008  6.18118  2.42111  9.82734
H-HA3-0.11064  4.28838 -2.02864  9.85273
H-HA4-0.10437  5.12270 -3.13861  7.82614
C-CA1--0.00004  5.60791  2.93977  6.33490
C-CA2--0.08258  6.91180  4.25647  7.87984
C-CA3--0.14725  5.72814  3.91718  5.35874
H-HA0-0.03700  5.04537  2.04230  6.11277
C-CA4--0.11051  7.03004  5.22947  6.90101
H-HA1-0.11977  7.36861  4.39511  8.85081
C-CA5--0.08036  6.44457  5.06422  5.65255
H-HA2-0.12416  5.26948  3.78735  4.38733
H-HA3-0.11064  7.58625  6.13368  7.11279
H-HA4-0.10437  6.54947  5.83949  4.90429
C-CA0--0.06446  1.91726  4.50888  3.62501
C-CA1--0.00004  2.39181  5.14471  4.77263
C-CA2--0.08258  1.18408  5.22280  2.68453
C-CA3--0.14725  2.14581  6.48986  4.99958
H-HA0-0.03700  2.96535  4.58608  5.49991
C-C-0.47863  2.19405  3.06091  3.36650
C-CA4--0.11051  0.93747  6.56577  2.91833
H-HA1-0.11977  0.81243  4.74386  1.78756
C-CA5--0.08036  1.41120  7.19630  4.06168
H-HA2-0.12416  2.51990  6.97639  5.89038
C-CA0--0.06446  2.32883  2.01748  4.43289
O-O--0.50008  2.31360  2.70386  2.19825
H-HA3-0.11064  0.36823  7.13432  2.19608
H-HA4-0.10437  1.20576  8.24744  4.21889
C-CA1--0.00004  1.73686  2.17175  5.68727
C-CA2--0.08258  3.05314  0.86761  4.14170
C-CA3--0.14725  1.86060  1.19222  6.66072
H-HA0-0.03700  1.16790  3.06506  5.91035
C-CA4--0.11051  3.17485 -0.10740  5.11816
H-HA1-0.11977  3.51324  0.73454  3.17133
C-CA5--0.08036  2.58493  0.05047  6.36565
H-HA2-0.12416  1.39828  1.31651  7.63115
H-HA3-0.11064  3.73717 -1.00752  4.90501
H-HA4-0.10437  2.69230 -0.72626  7.11213
C-CA0--0.06446  5.80897  9.63978  2.39389
C-CA1--0.00004  5.32704 10.27721  1.25029
C-CA2--0.08258  6.53778 10.35540  3.33649
C-CA3--0.14725  5.56109 11.62546  1.02937
H-HA0-0.03700  4.75707  9.71721  0.52124
C-C-0.47863  5.54532  8.18819  2.64610
C-CA4--0.11051  6.77249 11.70163  3.10878
H-HA1-0.11977  6.91519  9.87506  4.23036
C-CA5--0.08036  6.29130 12.33361  1.96934
H-HA2-0.12416  5.18135 12.11302  0.14153
C-CA0--0.06446  5.41314  7.14889  1.57508
O-O--0.50008  5.43506  7.82455  3.81332
H-HA3-0.11064  7.33823 12.27151  3.83259
H-HA4-0.10437  6.48752 13.38714  1.81661
C-CA1--0.00004  5.99066  7.31641  0.31549
C-CA2--0.08258  4.70561  5.98894  1.86739
C-CA3--0.14725  5.86861  6.34060 -0.66188
H-HA0-0.03700  6.54675  8.21735  0.09094
C-CA4--0.11051  4.58578  5.01760  0.88724
H-HA1-0.11977  4.25682  5.84534  2.84152
C-CA5--0.08036  5.16103  5.18899 -0.36510
H-HA2-0.12416  6.31933  6.47495 -1.63642
H-HA3-0.11064  4.03644  4.10970  1.10101
H-HA4-0.10437  5.05507  4.41484 -1.11422
Tv  7.73353  0.01152 -0.03049
Tv -0.04257 10.28875  0.01334
Tv  0.00631 -0.04933 12.03562

