pair_coeff 1 1 lj/charmm/coul/long   0.086000000000   3.399669508420
pair_coeff 2 2 lj/charmm/coul/long   0.086000000000   3.399669508420
pair_coeff 3 3 lj/charmm/coul/long   0.086000000000   3.399669508420
pair_coeff 4 4 lj/charmm/coul/long   0.086000000000   3.399669508420
pair_coeff 5 5 lj/charmm/coul/long   0.015000000000   2.599642459530
pair_coeff 6 6 lj/charmm/coul/long   0.015000000000   2.599642459530
pair_coeff 7 7 lj/charmm/coul/long   0.015000000000   2.599642459530
pair_coeff 8 8 lj/charmm/coul/long   0.086000000000   3.399669508420
pair_coeff 9 9 lj/charmm/coul/long   0.210400000000   3.066473387840
pair_coeff 10 10 lj/charmm/coul/long   0.210000000000   2.959921901150
pair_coeff 11 11 lj/charmm/coul/long   0.010000000000   0.100000000000
bond_coeff 1 harmonic 369.60000   0.97400
bond_coeff 2 harmonic 344.30000   1.08700
bond_coeff 3 harmonic 349.70000   1.48700
bond_coeff 4 harmonic 466.40000   1.30600
bond_coeff 5 harmonic 648.00000   1.21400
bond_coeff 6 harmonic 478.40000   1.38700
angle_coeff 1 harmonic  67.18000 119.97000
angle_coeff 2 harmonic  77.38000 122.88000
angle_coeff 3 harmonic  48.46000 120.01000
angle_coeff 4 harmonic  68.67000 123.44000
angle_coeff 5 harmonic  64.64000 120.14000
angle_coeff 6 harmonic  70.11000 113.44000
angle_coeff 7 harmonic  51.19000 107.37000
dihedral_coeff 1 fourier 4   0.00000 1   0.00000  2.30000 2 180.00000  0.00000 3   0.00000  0.00000 4   0.00000
dihedral_coeff 2 fourier 4   0.00000 1   0.00000  3.62500 2 180.00000  0.00000 3   0.00000  0.00000 4   0.00000
dihedral_coeff 3 fourier 4   0.00000 1   0.00000  1.00000 2 180.00000  0.00000 3   0.00000  0.00000 4   0.00000
dihedral_coeff 4 fourier 4   1.90000 1   0.00000  2.30000 2 180.00000  0.00000 3   0.00000  0.00000 4   0.00000
improper_coeff 1 cvff  10.50000 -1 2
improper_coeff 2 cvff   1.10000 -1 2
