pair_coeff 1 1 lj/charmm/coul/long   0.108578690044   3.745606695272
pair_coeff 2 2 lj/charmm/coul/long   0.124218938664   3.782714078237
pair_coeff 3 3 lj/charmm/coul/long   0.119146587019   3.744846343896
pair_coeff 4 4 lj/charmm/coul/long   0.101757739427   3.549082733264
pair_coeff 5 5 lj/charmm/coul/long   0.029341088964   2.403116951745
pair_coeff 6 6 lj/charmm/coul/long   0.004469524197   2.991815273512
pair_coeff 7 7 lj/charmm/coul/long   0.029291374591   2.416339662073
pair_coeff 8 8 lj/charmm/coul/long   0.106793720749   3.704547213559
pair_coeff 9 9 lj/charmm/coul/long   0.225929960299   2.652178626271
pair_coeff 10 10 lj/charmm/coul/long   0.223771889886   2.667417284949
pair_coeff 11 11 lj/charmm/coul/long   0.032418682344   0.633728384249
bond_coeff 1 harmonic 369.44622   0.96263
bond_coeff 2 harmonic 344.20564   1.07985
bond_coeff 3 harmonic 352.39252   1.45187
bond_coeff 4 harmonic 466.39369   1.34590
bond_coeff 5 harmonic 647.98056   1.20140
bond_coeff 6 harmonic 485.64951   1.32191
angle_coeff 1 harmonic  68.53715 119.67606
angle_coeff 2 harmonic  74.45419 120.23245
angle_coeff 3 harmonic  50.10138 123.84209
angle_coeff 4 harmonic  66.67721 128.96731
angle_coeff 5 harmonic  67.81683 117.22797
angle_coeff 6 harmonic  72.17111 110.25933
angle_coeff 7 harmonic  59.90521 116.44956
dihedral_coeff 1 fourier 4   0.62089 1   0.00000  2.90102 2 180.00000 -1.25957 3   0.00000  1.40388 4   0.00000
dihedral_coeff 2 fourier 4   0.20441 1   0.00000  6.42605 2 180.00000  0.57139 3   0.00000  1.07998 4   0.00000
dihedral_coeff 3 fourier 4  -0.03245 1   0.00000  1.33085 2 180.00000 -0.00975 3   0.00000 -0.03639 4   0.00000
dihedral_coeff 4 fourier 4   1.09238 1   0.00000  3.65133 2 180.00000 -0.43396 3   0.00000 -1.59657 4   0.00000
improper_coeff 1 cvff  10.50000 -1 2
improper_coeff 2 cvff   1.10000 -1 2
