pair_coeff 1 1 lj/charmm/coul/long 0.0150 2.59964245953 # Spellmeyer 
pair_coeff 4 4 lj/charmm/coul/long 0.2100 2.95992190115 # OPLS 
pair_coeff 2 2 lj/charmm/coul/long 0.0860 3.39966950842 # OPLS 
pair_coeff 3 3 lj/charmm/coul/long 0.0860 3.39966950842 # OPLS 
bond_coeff 4 harmonic 478.4 1.3870 # SOURCE1 6228 0.0147 
bond_coeff 3 harmonic 344.3 1.0870 # SOURCE3 1496 0.0045 
bond_coeff 1 harmonic 349.7 1.4870 # SOURCE1 480 0.0055 
bond_coeff 2 harmonic 648.0 1.2140 # SOURCE1 3682 0.0165 
angle_coeff 1 harmonic 67.18 119.97 # SOURCE3 1969 0.3480 
angle_coeff 3 harmonic 48.46 120.01 # SOURCE3 2980 0.2511 
angle_coeff 5 harmonic 64.64 120.14 # SOURCE3 40 0.4788 
angle_coeff 2 harmonic 63.03 118.58 # SOURCE4 144 2.1146 
angle_coeff 4 harmonic 68.67 123.44 # SOURCE3 18 2.5574 
dihedral_coeff 2 fourier 1 1.0 2 180.0 # optimized by Junmei Wang, Jan-2013 
dihedral_coeff 1 fourier 1 3.625 2 180.0 # intrpol.bsd.on C6H6 
improper_coeff 1 cvff 10.5 -1 2 # JCC,7,(1986),230 
improper_coeff 2 cvff 1.1 -1 2 # bsd.on C6H6 nmodes 
