# amber(Print,SoftOnly) 

./data/benzac/res084/benzac_lat_iniff84.gjf nmol_natom 8_15

0 1
C-CA0--0.01341  2.03921  2.67198 19.69651
C-CA1--0.11935  2.94978  2.43355 18.64784
C-CA1--0.11935  0.90305  1.84712 19.79668
C-CA2--0.08789  2.73311  1.39956 17.73204
H-HA0-0.12599  3.83626  3.05287 18.53492
C-C-0.70288  2.25253  3.78506 20.69719
C-CA2--0.08789  0.68774  0.81300 18.87738
H-HA0-0.12599  0.18117  2.00159 20.59718
C-CA3--0.09024  1.60357  0.58712 17.84704
H-HA1-0.10290  3.44836  1.22788 16.93341
O-OH--0.61217  3.39705  4.40454 20.63694
O-O0--0.60901  1.43536  4.12103 21.53012
H-HA1-0.10290 -0.18725  0.17630 18.96917
H-HA2-0.10638  1.43927 -0.21918 17.13849
H-HO-0.47224  3.34889  5.08940 21.33496
C-CA0--0.01341  7.41466  2.69158 19.51481
C-CA1--0.11935  8.32094  2.43250 18.46759
C-CA1--0.11935  6.26679  1.88372 19.62147
C-CA2--0.08789  8.08882  1.39494 17.55946
H-HA0-0.12599  9.21581  3.03861 18.34968
C-C-0.70288  7.64383  3.80859 20.50750
C-CA2--0.08789  6.03589  0.84654 18.70957
H-HA0-0.12599  5.54766  2.05395 20.42124
C-CA3--0.09024  6.94726  0.60037 17.68001
H-HA1-0.10290  8.80131  1.20645 16.76227
O-OH--0.61217  8.78962  4.42459 20.43342
O-O0--0.60901  6.83616  4.15074 21.34679
H-HA1-0.10290  5.15208  0.22327 18.80660
H-HA2-0.10638  6.77155 -0.20948 16.97814
H-HO-0.47224  8.75227  5.10909 21.13208
C-CA0--0.01341  4.72492  0.07092 13.37314
C-CA1--0.11935  3.88925 -0.16541 14.48270
C-CA1--0.11935  5.89945 -0.69419 13.24477
C-CA2--0.08789  4.21298 -1.14359 15.42785
H-HA0-0.12599  2.97780  0.41177 14.61990
C-C-0.70288  4.39137  1.11925 12.33644
C-CA2--0.08789  6.22119 -1.67277 14.19327
H-HA0-0.12599  6.56747 -0.53773 12.39930
C-CA3--0.09024  5.37730 -1.90085 15.28273
H-HA1-0.10290  3.55384 -1.31425 16.27307
O-OH--0.61217  3.21145  1.66410 12.42474
O-O0--0.60901  5.14361  1.46577 11.44898
H-HA1-0.10290  7.12461 -2.26410 14.08040
H-HA2-0.10638  5.62709 -2.66416 16.01483
H-HO-0.47224  3.17429  2.31397 11.69388
C-CA0--0.01341 10.12234  0.04061 13.22311
C-CA1--0.11935  9.26881 -0.18885 14.32048
C-CA1--0.11935 11.29542 -0.72976 13.11485
C-CA2--0.08789  9.57336 -1.16533 15.27310
H-HA0-0.12599  8.35769  0.39237 14.44231
C-C-0.70288  9.80676  1.08746 12.17935
C-CA2--0.08789 11.59901 -1.70569 14.07229
H-HA0-0.12599 11.97669 -0.57881 12.27900
C-CA3--0.09024 10.73689 -1.92698 15.14867
H-HA1-0.10290  8.90011 -1.33022 16.10807
O-OH--0.61217  8.62659  1.63404 12.25191
O-O0--0.60901 10.57096  1.43142 11.30085
H-HA1-0.10290 12.50215 -2.30049 13.97720
H-HA2-0.10638 10.97177 -2.68823 15.88698
H-HO-0.47224  8.60201  2.28691 11.52289
C-CA0--0.01341  3.57383  5.11639  8.56639
C-CA1--0.11935  4.42736  5.34585  7.46902
C-CA1--0.11935  2.40076  5.88676  8.67465
C-CA2--0.08789  4.12281  6.32233  6.51639
H-HA0-0.12599  5.33848  4.76463  7.34719
C-C-0.70288  3.88941  4.06954  9.61015
C-CA2--0.08789  2.09716  6.86269  7.71721
H-HA0-0.12599  1.71948  5.73581  9.51049
C-CA3--0.09024  2.95928  7.08398  6.64083
H-HA1-0.10290  4.79606  6.48722  5.68143
O-OH--0.61217  5.06958  3.52296  9.53759
O-O0--0.60901  3.12521  3.72558 10.48864
H-HA1-0.10290  1.19403  7.45749  7.81230
H-HA2-0.10638  2.72440  7.84523  5.90251
H-HO-0.47224  5.09416  2.87009 10.26660
C-CA0--0.01341  8.97125  5.08608  8.41636
C-CA1--0.11935  9.80692  5.32241  7.30680
C-CA1--0.11935  7.79672  5.85119  8.54473
C-CA2--0.08789  9.48319  6.30059  6.36164
H-HA0-0.12599 10.71837  4.74523  7.16960
C-C-0.70288  9.30480  4.03775  9.45305
C-CA2--0.08789  7.47498  6.82977  7.59622
H-HA0-0.12599  7.12870  5.69473  9.39019
C-CA3--0.09024  8.31887  7.05785  6.50677
H-HA1-0.10290 10.14233  6.47125  5.51643
O-OH--0.61217 10.48472  3.49290  9.36475
O-O0--0.60901  8.55256  3.69123 10.34051
H-HA1-0.10290  6.57156  7.42110  7.70910
H-HA2-0.10638  8.06908  7.82116  5.77467
H-HO-0.47224 10.52188  2.84303 10.09562
C-CA0--0.01341  6.28151  2.46542  2.27469
C-CA1--0.11935  5.37524  2.72450  3.32190
C-CA1--0.11935  7.42938  3.27328  2.16802
C-CA2--0.08789  5.60735  3.76206  4.23003
H-HA0-0.12599  4.48036  2.11839  3.43981
C-C-0.70288  6.05234  1.34841  1.28199
C-CA2--0.08789  7.66028  4.31046  3.07993
H-HA0-0.12599  8.14851  3.10305  1.36826
C-CA3--0.09024  6.74891  4.55663  4.10949
H-HA1-0.10290  4.89486  3.95055  5.02723
O-OH--0.61217  4.90655  0.73241  1.35607
O-O0--0.60901  6.86001  1.00626  0.44271
H-HA1-0.10290  8.54409  4.93373  2.98289
H-HA2-0.10638  6.92462  5.36648  4.81136
H-HO-0.47224  4.94390  0.04791  0.65741
C-CA0--0.01341 11.65696  2.48502  2.09299
C-CA1--0.11935 10.74639  2.72345  3.14166
C-CA1--0.11935 12.79312  3.30988  1.99281
C-CA2--0.08789 10.96306  3.75744  4.05745
H-HA0-0.12599  9.85991  2.10413  3.25458
C-C-0.70288 11.44364  1.37194  1.09231
C-CA2--0.08789 13.00843  4.34400  2.91212
H-HA0-0.12599 13.51500  3.15541  1.19232
C-CA3--0.09024 12.09260  4.56988  3.94246
H-HA1-0.10290 10.24781  3.92912  4.85608
O-OH--0.61217 10.29912  0.75246  1.15256
O-O0--0.60901 12.26081  1.03597  0.25937
H-HA1-0.10290 13.88342  4.98070  2.82033
H-HA2-0.10638 12.25690  5.37618  4.65101
H-HO-0.47224 10.34728  0.06760  0.45454
Tv 10.72078  0.04919 -0.39780
Tv -0.13091  5.00807 -0.11298
Tv -3.53306  0.49797 22.16526

