pair_coeff 1 1 lj/charmm/coul/long   0.109990708907   3.735872317774
pair_coeff 2 2 lj/charmm/coul/long   0.119559964309   3.651028156182
pair_coeff 3 3 lj/charmm/coul/long   0.122010161251   3.778886157622
pair_coeff 4 4 lj/charmm/coul/long   0.109206588277   3.541477636883
pair_coeff 5 5 lj/charmm/coul/long   0.009184093131   2.501898987989
pair_coeff 6 6 lj/charmm/coul/long   0.029782405742   2.641520901172
pair_coeff 7 7 lj/charmm/coul/long   0.016719250649   2.708307855862
pair_coeff 8 8 lj/charmm/coul/long   0.115301011981   3.738408212360
pair_coeff 9 9 lj/charmm/coul/long   0.222971032246   2.858545799328
pair_coeff 10 10 lj/charmm/coul/long   0.219578814995   2.613586193218
pair_coeff 11 11 lj/charmm/coul/long   0.001592727908   0.750222863120
bond_coeff 1 harmonic 369.46767   0.96440
bond_coeff 2 harmonic 344.28187   1.08050
bond_coeff 3 harmonic 352.29724   1.45293
bond_coeff 4 harmonic 466.64026   1.35240
bond_coeff 5 harmonic 648.01044   1.20247
bond_coeff 6 harmonic 483.22269   1.32548
angle_coeff 1 harmonic  67.04959 119.98669
angle_coeff 2 harmonic  77.37399 122.72743
angle_coeff 3 harmonic  45.03327 120.82075
angle_coeff 4 harmonic  69.00600 123.70809
angle_coeff 5 harmonic  65.87612 118.99176
angle_coeff 6 harmonic  70.26722 113.24395
angle_coeff 7 harmonic  59.79318 115.21373
dihedral_coeff 1 fourier 4   0.64126 1   0.00000  3.34474 2 180.00000  0.16523 3   0.00000 -0.53044 4   0.00000
dihedral_coeff 2 fourier 4  -0.02184 1   0.00000  3.70722 2 180.00000 -0.19653 3   0.00000 -0.32883 4   0.00000
dihedral_coeff 3 fourier 4   0.02140 1   0.00000  1.27557 2 180.00000  0.13393 3   0.00000 -0.09299 4   0.00000
dihedral_coeff 4 fourier 4   1.33803 1   0.00000  3.03567 2 180.00000  0.51027 3   0.00000  0.64690 4   0.00000
improper_coeff 1 cvff  10.50000 -1 2
improper_coeff 2 cvff   1.10000 -1 2
