# amber(Print,SoftOnly) 

./data/benzac/res084/benzac_iniff84.gjf nmol_natom 1_15

0 1
C-CA0--0.01341  0.23263  0.01350 -0.00001
C-CA1--0.11935 -0.46768 -1.21098 -0.00053
C-CA1--0.11935 -0.51145  1.20954  0.00051
C-CA2--0.08789 -1.86768 -1.23519 -0.00054
H-HA0-0.12599  0.07144 -2.15590 -0.00099
C-C-0.70288  1.74553  0.07394 -0.00006
C-CA2--0.08789 -1.91145  1.18416  0.00053
H-HA0-0.12599 -0.00201  2.17138  0.00092
C-CA3--0.09024 -2.58980 -0.03813 -0.00001
H-HA1-0.10290 -2.39533 -2.18623 -0.00098
O-OH--0.61217  2.38095 -1.06320  0.00106
O-O0--0.60901  2.39097  1.10113 -0.00101
H-HA1-0.10290 -2.47312  2.11569  0.00096
H-HA2-0.10638 -3.67726 -0.05773 -0.00001
H-HO-0.47224  3.31689 -0.79952  0.00087

