# amber(Print,SoftOnly) 

./data/biphen/res090/biphen_optff90.gjf nmol_natom 1_22

0 1
C-CP-0.03676 -0.74332 -0.00000 -0.00000
C-CA0--0.09613 -1.46587 -1.11261  0.44319
C-CA0--0.09613 -1.46587  1.11260 -0.44319
C-CA1--0.10735 -2.85712 -1.12507  0.44961
H-HA0-0.08494 -1.04451 -2.03839  0.81693
C-CP-0.03676  0.74332 -0.00000  0.00000
C-CA1--0.10735 -2.85712  1.12507 -0.44961
H-HA0-0.08494 -1.04450  2.03839 -0.81694
C-CA2--0.07910 -3.54174  0.00000 -0.00000
H-HA1-0.09685 -3.40067 -1.99479  0.79896
C-CA0--0.09613  1.46587 -1.11261 -0.44319
C-CA0--0.09613  1.46587  1.11260  0.44319
H-HA1-0.09685 -3.40066  1.99480 -0.79896
H-HA2-0.08571 -4.62528  0.00001  0.00000
C-CA1--0.10735  2.85712 -1.12507 -0.44961
H-HA0-0.08494  1.04451 -2.03839 -0.81693
C-CA1--0.10735  2.85712  1.12507  0.44961
H-HA0-0.08494  1.04450  2.03839  0.81694
C-CA2--0.07910  3.54174  0.00000  0.00000
H-HA1-0.09685  3.40067 -1.99479 -0.79896
H-HA1-0.09685  3.40066  1.99480  0.79896
H-HA2-0.08571  4.62528  0.00001 -0.00000

