pair_coeff 1 1 lj/charmm/coul/long   0.094067938479   3.416689310216
pair_coeff 2 2 lj/charmm/coul/long   0.102772881055   3.607113059932
pair_coeff 3 3 lj/charmm/coul/long   0.119482121967   3.804528295662
pair_coeff 4 4 lj/charmm/coul/long   0.113526571787   3.880300729188
pair_coeff 5 5 lj/charmm/coul/long   0.003618891551   2.572841346515
pair_coeff 6 6 lj/charmm/coul/long   0.005146800138   2.319699052045
pair_coeff 7 7 lj/charmm/coul/long   0.002408296878   2.071597941151
bond_coeff 1 harmonic 344.09633   1.08327
bond_coeff 2 harmonic 466.12594   1.33439
bond_coeff 3 harmonic 482.35322   1.34272
bond_coeff 4 harmonic 349.20888   1.45569
angle_coeff 1 harmonic  67.38005 116.77832
angle_coeff 2 harmonic  50.27141 127.10301
angle_coeff 3 harmonic  68.12929 117.70857
angle_coeff 4 harmonic  64.70826 121.71810
angle_coeff 5 harmonic  67.05177 122.82212
angle_coeff 6 harmonic  41.02244 113.98946
dihedral_coeff 1 fourier 4   0.00008 1   0.00000  3.80011 2 180.00000  0.00074 3   0.00000 -0.70035 4   0.00000
dihedral_coeff 2 fourier 4  -0.05405 1   0.00000  3.42005 2 180.00000 -0.48383 3   0.00000  0.81549 4   0.00000
dihedral_coeff 3 fourier 4   0.00524 1   0.00000  0.98150 2 180.00000  0.04713 3   0.00000  0.09879 4   0.00000
improper_coeff 1 cvff   1.10000 -1 2
