pair_coeff 1 1 lj/charmm/coul/long   0.093981615722   3.474259699667
pair_coeff 2 2 lj/charmm/coul/long   0.091671902223   3.368817789588
pair_coeff 3 3 lj/charmm/coul/long   0.006992304286   2.435062546312
pair_coeff 4 4 lj/charmm/coul/long   0.099051163651   3.666589677068
pair_coeff 5 5 lj/charmm/coul/long   0.092825665831   3.419614083019
pair_coeff 6 6 lj/charmm/coul/long   0.093196661318   3.554218893737
pair_coeff 7 7 lj/charmm/coul/long   0.102750085245   3.719922729822
pair_coeff 8 8 lj/charmm/coul/long   0.009785888560   2.501010242243
pair_coeff 9 9 lj/charmm/coul/long   0.008626957964   2.596538667665
pair_coeff 10 10 lj/charmm/coul/long   0.009649620762   2.573996727699
bond_coeff 1 harmonic 344.18107   1.08218
bond_coeff 2 harmonic 463.11844   1.36725
bond_coeff 3 harmonic 479.36747   1.36421
bond_coeff 4 harmonic 348.16474   1.46059
angle_coeff 1 harmonic  66.97462 119.12150
angle_coeff 2 harmonic  49.25535 121.60772
angle_coeff 3 harmonic  67.53945 115.56854
angle_coeff 4 harmonic  64.85416 123.76065
angle_coeff 5 harmonic  65.37694 123.46765
angle_coeff 6 harmonic  46.91243 117.44073
dihedral_coeff 1 fourier 4  -0.01091 1   0.00000  3.57012 2 180.00000 -0.09811 3   0.00000  0.21964 4   0.00000
dihedral_coeff 2 fourier 4  -0.02670 1   0.00000  3.79455 2 180.00000 -0.24059 3   0.00000 -0.67602 4   0.00000
dihedral_coeff 3 fourier 4  -0.00788 1   0.00000  0.48297 2 180.00000 -0.01518 3   0.00000  0.14504 4   0.00000
improper_coeff 1 cvff   1.10000 -1 2
