# amber(Print,SoftOnly) 

./data/tphben/res082/tphben_optff82.gjf nmol_natom 1_42

0 1
C-CP0-0.04493 -1.25354 -0.66061 -0.05101
C-CA0--0.16187 -0.05252 -1.35544 -0.00087
C-CA0--0.16187 -1.14719  0.72389 -0.04643
C-CP0-0.04493  1.19865 -0.75557  0.04934
H-HA0-0.08864 -0.09446 -2.43832 -0.00077
C-CP1-0.11763 -2.55539 -1.34778 -0.10653
C-CP0-0.04493  0.05488  1.41747 -0.00079
H-HA0-0.08864 -2.06314  1.30167 -0.08692
C-CA0--0.16187  1.19970  0.63300  0.04481
C-CP1-0.11763  2.44340 -1.54140  0.10572
C-CA1--0.15890 -2.79412 -2.46098 -0.92397
C-CA1--0.15890 -3.66116 -0.94389  0.65359
C-CP1-0.11763  0.11192  2.88955 -0.00040
H-HA0-0.08864  2.15758  1.13820  0.08560
C-CA1--0.15890  2.59461 -2.66944  0.92368
C-CA1--0.15890  3.57774 -1.22451 -0.65355
C-CA2--0.07741 -4.02034 -3.12052 -0.98731
H-HA1-0.10625 -2.00973 -2.85631 -1.55713
C-CA2--0.07741 -4.89815 -1.58454  0.61336
H-HA1-0.10625 -3.58756 -0.09571  1.32241
C-CA1--0.15890 -0.74561  3.68378  0.77284
C-CA1--0.15890  1.02847  3.61548 -0.77305
C-CA2--0.07741  3.76605 -3.42187  0.98827
H-HA1-0.10625  1.78148 -3.00260  1.55634
C-CA2--0.07741  4.76142 -1.95896 -0.61206
H-HA1-0.10625  3.57060 -0.37335 -1.32260
C-CA3--0.10971 -5.08798 -2.68436 -0.21334
H-HA2-0.09444 -4.14127 -3.97425 -1.64187
H-HA2-0.09444 -5.71238 -1.22481  1.22918
C-CA2--0.07741 -0.70267  5.07680  0.78467
H-HA1-0.10625 -1.49159  3.22694  1.41085
C-CA2--0.07741  1.09372  5.00765 -0.78377
H-HA1-0.10625  1.73685  3.10264 -1.41136
C-CA3--0.10971  4.86489 -3.06989  0.21511
H-HA2-0.09444  3.82001 -4.28211  1.64324
H-HA2-0.09444  5.60161 -1.66349 -1.22720
H-HA3-0.09159 -6.04435 -3.18928 -0.25322
C-CA3--0.10971  0.22316  5.75311  0.00076
H-HA2-0.09444 -1.39187  5.63293  1.40719
H-HA2-0.09444  1.82408  5.50912 -1.40578
H-HA3-0.09159  5.77930 -3.64726  0.25603
H-HA3-0.09159  0.26524  6.83450  0.00127

