# amber(Print,SoftOnly) 

./data/tphben/res082/tphben_lat_optff82.gjf nmol_natom 4_42

0 1
C-CP0-0.04493  2.20263  2.19875 -1.38334
C-CA0--0.16187  1.94978  2.24771 -0.01934
C-CA0--0.16187  2.19338  3.42948 -2.02582
C-CP0-0.04493  1.69857  3.40752  0.70318
H-HA0-0.08864  1.94898  1.31253  0.52143
C-CP1-0.11763  2.45692  0.93205 -2.10137
C-CP0-0.04493  1.95626  4.64759 -1.40237
H-HA0-0.08864  2.39047  3.44121 -3.09058
C-CA0--0.16187  1.71106  4.58172 -0.03761
C-CP1-0.11763  1.44513  3.39171  2.15727
C-CA1--0.15890  3.09666 -0.16985 -1.51540
C-CA1--0.15890  2.08157  0.72644 -3.43679
C-CP1-0.11763  1.97635  5.92290 -2.14093
H-HA0-0.08864  1.51909  5.51050  0.48456
C-CA1--0.15890  0.80007  2.33088  2.80867
C-CA1--0.15890  1.84438  4.42756  3.01328
C-CA2--0.07741  3.34179 -1.36697 -2.18532
H-HA1-0.10625  3.43532 -0.12791 -0.48929
C-CA2--0.07741  2.31932 -0.45465 -4.13496
H-HA1-0.10625  1.57737  1.50541 -3.99119
C-CA1--0.15890  1.51125  6.04753 -3.45635
C-CA1--0.15890  2.46665  7.11525 -1.59305
C-CA2--0.07741  0.56365  2.29402  4.18113
H-HA1-0.10625  0.45644  1.47175  2.24958
C-CA2--0.07741  1.62577  4.41784  4.38871
H-HA1-0.10625  2.35907  5.29686  2.62486
C-CA3--0.10971  2.95249 -1.51849 -3.50871
H-HA2-0.09444  3.83826 -2.18108 -1.67394
H-HA2-0.09444  2.00459 -0.54386 -5.16562
C-CA2--0.07741  1.53826  7.23969 -4.17529
H-HA1-0.10625  1.09537  5.19405 -3.97231
C-CA2--0.07741  2.50946  8.32182 -2.28712
H-HA1-0.10625  2.84993  7.13833 -0.58159
C-CA3--0.10971  0.98107  3.34356  4.98638
H-HA2-0.09444  0.05340  1.44629  4.62058
H-HA2-0.09444  1.96329  5.24902  4.99155
H-HA3-0.09159  3.13819 -2.44330 -4.03866
C-CA3--0.10971  2.05284  8.38978 -3.59527
H-HA2-0.09444  1.15784  7.26859 -5.18714
H-HA2-0.09444  2.90796  9.20595 -1.80840
H-HA3-0.09159  0.79960  3.32719  6.05265
H-HA3-0.09159  2.08300  9.31939 -4.14322
C-CP0-0.04493  5.86812  7.72763 -1.37446
C-CA0--0.16187  5.61697  7.68023 -0.01012
C-CA0--0.16187  5.85987  6.49576 -2.01538
C-CP0-0.04493  5.36778  6.52178  0.71493
H-HA0-0.08864  5.61498  8.61634  0.52904
C-CP1-0.11763  6.11746  8.99527 -2.09288
C-CP0-0.04493  5.62526  5.27824 -1.38918
H-HA0-0.08864  6.05483  6.48270 -3.08055
C-CA0--0.16187  5.38138  5.34660 -0.02423
C-CP1-0.11763  5.11183  6.54043  2.16881
C-CA1--0.15890  6.75916 10.09675 -1.50832
C-CA1--0.15890  5.73322  9.20380 -3.42533
C-CP1-0.11763  5.64273  4.00060 -2.12427
H-HA0-0.08864  5.19025  4.41861  0.49944
C-CA1--0.15890  4.47347  7.60652  2.81846
C-CA1--0.15890  5.49903  5.50123  3.02612
C-CA2--0.07741  6.99913 11.29580 -2.17654
H-HA1-0.10625  7.10358 10.05284 -0.48442
C-CA2--0.07741  5.96310 10.38809 -4.12128
H-HA1-0.10625  5.22684  8.42527 -3.97849
C-CA1--0.15890  5.17028  3.87127 -3.43655
C-CA1--0.15890  6.13439  2.80957 -1.57452
C-CA2--0.07741  4.23300  7.64533  4.19019
H-HA1-0.10625  4.13852  8.46854  2.25855
C-CA2--0.07741  5.27536  5.51228  4.40068
H-HA1-0.10625  6.00650  4.62717  2.63926
C-CA3--0.10971  6.59925 11.45101 -3.49624
H-HA2-0.09444  7.50017 12.10834 -1.66683
H-HA2-0.09444  5.64022 10.48077 -5.14941
C-CA2--0.07741  5.19072  2.67580 -4.15045
H-HA1-0.10625  4.75218  4.72318 -3.95335
C-CA2--0.07741  6.17097  1.59979 -2.26365
H-HA1-0.10625  6.52254  2.78984 -0.56487
C-CA3--0.10971  4.63826  6.59193  4.99652
H-HA2-0.09444  3.72934  8.49764  4.62831
H-HA2-0.09444  5.60205  4.67738  5.00426
H-HA3-0.09159  6.78039 12.37765 -4.02455
C-CA3--0.10971  5.70555  1.52679 -3.56833
H-HA2-0.09444  4.80255  2.64297 -5.15915
H-HA2-0.09444  6.57026  0.71660 -1.78363
H-HA3-0.09159  4.45406  6.60967  6.06232
H-HA3-0.09159  5.72782  0.59372 -4.11110
C-CP0-0.04493  1.74391 12.03766  4.23047
C-CA0--0.16187  1.98681 12.08487  5.59648
C-CA0--0.16187  1.75670 13.26935  3.58952
C-CP0-0.04493  2.23265 13.24367  6.32251
H-HA0-0.08864  1.98472 11.14887  6.13579
C-CP1-0.11763  1.49805 10.77118  3.50897
C-CP0-0.04493  1.98847 14.48671  4.21655
H-HA0-0.08864  1.56782 13.28238  2.52326
C-CA0--0.16187  2.22458 14.41845  5.58269
C-CP1-0.11763  2.48004 13.22745  7.77798
C-CA1--0.15890  0.85079  9.66951  4.08689
C-CA1--0.15890  1.89094 10.56490  2.17867
C-CP1-0.11763  1.97448 15.76401  3.48115
H-HA0-0.08864  2.41337 15.34653  6.10705
C-CA1--0.15890  3.11048 12.16088  8.43440
C-CA1--0.15890  2.09327 14.27128  8.62993
C-CA2--0.07741  0.61375  8.47223  3.41435
H-HA1-0.10625  0.49900  9.71200  5.10837
C-CA2--0.07741  1.66403  9.38264  1.47852
H-HA1-0.10625  2.40170 11.34405  1.63047
C-CA1--0.15890  2.44874 15.89235  2.16941
C-CA1--0.15890  1.48284 16.95548  4.02977
C-CA2--0.07741  3.34461 12.12610  9.80736
H-HA1-0.10625  3.44474 11.29569  7.87907
C-CA2--0.07741  2.31079 14.26442 10.00543
H-HA1-0.10625  1.59180 15.14641  8.23770
C-CA3--0.10971  1.02214  8.31931  2.09689
H-HA2-0.09444  0.10779  7.65952  3.91880
H-HA2-0.09444  1.99287  9.29226  0.45209
C-CA2--0.07741  2.42992 17.08751  1.45497
H-HA1-0.10625  2.86632 15.03971  1.65335
C-CA2--0.07741  1.44778 18.16485  3.34005
H-HA1-0.10625  1.09289 16.97575  5.03873
C-CA3--0.10971  2.94085 13.18446 10.60798
H-HA2-0.09444  3.84325 11.27355 10.25071
H-HA2-0.09444  1.98566 15.10331 10.60428
H-HA3-0.09159  0.84257  7.39447  1.56483
C-CA3--0.10971  1.91487 18.23694  2.03596
H-HA2-0.09444  2.81867 17.11972  0.44646
H-HA2-0.09444  1.04755 19.04818  3.81890
H-HA3-0.09159  3.12150 13.17066 11.67446
H-HA3-0.09159  1.89298 19.16949  1.49261
C-CP0-0.04493  5.41202 17.56071  4.22132
C-CA0--0.16187  5.65634 17.51324  5.58681
C-CA0--0.16187  5.42534 16.32948  3.57993
C-CP0-0.04493  5.90313 16.35434  6.31204
H-HA0-0.08864  5.65438 18.44916  6.12658
C-CP1-0.11763  5.16314 18.82713  3.50133
C-CP0-0.04493  5.65825 15.11205  4.20627
H-HA0-0.08864  5.23537 16.31672  2.51385
C-CA0--0.16187  5.89489 15.17919  5.57256
C-CP1-0.11763  6.14921 16.37325  7.76728
C-CA1--0.15890  4.52150 19.92967  4.08393
C-CA1--0.15890  5.54653 19.03232  2.16813
C-CP1-0.11763  5.64312 13.83631  3.46844
H-HA0-0.08864  6.08382 14.25097  6.09673
C-CA1--0.15890  6.79079 17.43594  8.41913
C-CA1--0.15890  5.74618 15.33946  8.62384
C-CA2--0.07741  4.28233 21.12735  3.41308
H-HA1-0.10625  4.17656 19.88778  5.10802
C-CA2--0.07741  5.31493 20.21417  1.46912
H-HA1-0.10625  6.05264 18.25256  1.61642
C-CA1--0.15890  6.12202 13.70998  2.15819
C-CA1--0.15890  5.14432 12.64539  4.01163
C-CA2--0.07741  7.02086 17.47631  9.79254
H-HA1-0.10625  7.13658 18.29385  7.85951
C-CA2--0.07741  5.95839 15.35270 10.00024
H-HA1-0.10625  5.23347 14.46916  8.23507
C-CA3--0.10971  4.67986 21.27878  2.09216
H-HA2-0.09444  3.78389 21.94189  3.92177
H-HA2-0.09444  5.63535 20.30323  0.44016
C-CA2--0.07741  6.10006 12.51751  1.43968
H-HA1-0.10625  6.54537 14.56229  1.64630
C-CA2--0.07741  5.10611 11.43854  3.31769
H-HA1-0.10625  4.75024 12.62379  5.01893
C-CA3--0.10971  6.60006 16.42860 10.59839
H-HA2-0.09444  7.52894 18.32524 10.23221
H-HA2-0.09444  5.61812 14.52297 10.60343
H-HA3-0.09159  4.49811 22.20390  1.56143
C-CA3--0.10971  5.57633 11.36893  2.01447
H-HA2-0.09444  6.49129 12.48735  0.43211
H-HA2-0.09444  4.70053 10.55552  3.79250
H-HA3-0.09159  6.77665 16.44766 11.66546
H-HA3-0.09159  5.54946 10.43925  1.46640
Tv  7.32850  0.09679  0.02262
Tv -0.03632 19.65630 -0.01040
Tv -0.03881  0.01129 11.22409

