# amber(Print,SoftOnly) 

./data/antcen/res089/antcen_optff89.gjf nmol_natom 1_24

0 1
C-CA1-0.21329 -0.01836  0.00002 -0.02771
C-CA0--0.43067  0.05974  0.00032  1.36075
C-CA1-0.21329  1.23649 -0.00021 -0.72953
C-CA1-0.21329  1.20190  0.00053  2.15410
H-HA0-0.20305 -0.90021  0.00036  1.89763
C-CA2--0.22976 -1.24398 -0.00007 -0.74209
C-CA0--0.43067  2.37865  0.00000  0.06382
C-CA2--0.22976  1.26937 -0.00063 -2.14777
C-CA1-0.21329  2.45675  0.00031  1.45228
C-CA2--0.22976  1.16902  0.00096  3.57234
C-CA3--0.08200 -1.17011 -0.00046 -2.12800
H-HA1-0.12268 -2.19257  0.00016 -0.22704
H-HA0-0.20305  3.33860 -0.00003 -0.47306
C-CA3--0.08200  0.04984 -0.00077 -2.81029
H-HA1-0.12268  2.20475 -0.00087 -2.68642
C-CA2--0.22976  3.68237  0.00040  2.16666
C-CA3--0.08200  2.38855  0.00109  4.23486
H-HA1-0.12268  0.23364  0.00120  4.11099
H-HA2-0.08960 -2.09711 -0.00054 -2.68729
H-HA2-0.08960  0.05857 -0.00114 -3.89291
C-CA3--0.08200  3.60849  0.00079  3.55257
H-HA1-0.12268  4.63096  0.00017  1.65161
H-HA2-0.08960  2.37982  0.00147  5.31748
H-HA2-0.08960  4.53550  0.00087  4.11186

