pair_coeff 1 1 lj/charmm/coul/long   0.054269631581   2.427444261710
pair_coeff 2 2 lj/charmm/coul/long   0.085882796615   3.333493208893
pair_coeff 3 3 lj/charmm/coul/long   0.155410549196   3.837190627033
pair_coeff 4 4 lj/charmm/coul/long   0.103200503393   3.449102369891
pair_coeff 5 5 lj/charmm/coul/long   0.029999993334   2.940677056005
pair_coeff 6 6 lj/charmm/coul/long   0.009149357273   2.246089930320
pair_coeff 7 7 lj/charmm/coul/long   0.029995968102   2.849106230530
bond_coeff 1 harmonic 346.54425   1.07985
bond_coeff 2 harmonic 442.59363   1.36282
angle_coeff 1 harmonic  38.15404 111.21917
angle_coeff 2 harmonic  57.70105 130.70273
dihedral_coeff 1 fourier 4  -0.09361 1   0.00000  3.05160 2 180.00000 -0.88760 3   0.00000 -0.21066 4   0.00000
improper_coeff 1 cvff   1.10000 -1 2
