# amber(Print,SoftOnly) 

./data/antcen/res089/antcen_lat_optff89.gjf nmol_natom 4_24

0 1
C-CA1-0.21329  0.40567 -0.46584 -1.30058
C-CA0--0.43067 -0.39311 -1.19500 -0.42824
C-CA1-0.21329  0.83753  0.82078 -0.82783
C-CA1-0.21329 -0.82937 -0.83396  0.84104
H-HA0-0.20305 -0.71686 -2.18115 -0.78591
C-CA2--0.22976  0.79003 -0.92923 -2.58459
C-CA0--0.43067  0.40107  1.18194  0.44135
C-CA2--0.22976  1.66015  1.64491 -1.63510
C-CA1-0.21329 -0.39734  0.45257  1.31390
C-CA2--0.22976 -1.65154 -1.65842  1.64846
C-CA3--0.08200  1.59882 -0.09456 -3.34152
H-HA1-0.12268  0.46948 -1.89264 -2.95183
H-HA0-0.20305  0.72497  2.16803  0.79906
C-CA3--0.08200  2.02252  1.15453 -2.88029
H-HA1-0.12268  1.99432  2.61220 -1.29074
C-CA2--0.22976 -0.78078  0.91540  2.59842
C-CA3--0.08200 -2.01262 -1.16883  2.89434
H-HA1-0.12268 -1.98603 -2.62549  1.30380
H-HA2-0.08960  1.90535 -0.43667 -4.31959
H-HA2-0.08960  2.65390  1.77350 -3.50384
C-CA3--0.08200 -1.58859  0.08007  3.35581
H-HA1-0.12268 -0.46009  1.87875  2.96574
H-HA2-0.08960 -2.64326 -1.78829  3.51817
H-HA2-0.08960 -1.89409  0.42136  4.33449
C-CA1-0.21329  8.95951 -0.47355 -1.31047
C-CA0--0.43067  8.16033 -1.20221 -0.43791
C-CA1-0.21329  9.39281  0.81254 -0.83744
C-CA1-0.21329  7.72508 -0.84106  0.83178
H-HA0-0.20305  7.83446 -2.18759 -0.79616
C-CA2--0.22976  9.34176 -0.93629 -2.59547
C-CA0--0.43067  8.95725  1.17378  0.43206
C-CA2--0.22976 10.21492  1.63669 -1.64525
C-CA1-0.21329  8.15839  0.44503  1.30474
C-CA2--0.22976  6.90250 -1.66494  1.63947
C-CA3--0.08200 10.14939 -0.10115 -3.35327
H-HA1-0.12268  9.01933 -1.89882 -2.96343
H-HA0-0.20305  9.28168  2.15975  0.78960
C-CA3--0.08200 10.57463  1.14732 -2.89165
H-HA1-0.12268 10.54968  2.60379 -1.30084
C-CA2--0.22976  7.77560  0.90818  2.58939
C-CA3--0.08200  6.54217 -1.17506  2.88555
H-HA1-0.12268  6.56714 -2.63173  1.29484
H-HA2-0.08960 10.45271 -0.44183 -4.33289
H-HA2-0.08960 11.20430  1.76704 -3.51624
C-CA3--0.08200  6.96729  0.07351  3.34696
H-HA1-0.12268  8.09739  1.87114  2.95681
H-HA2-0.08960  5.91123 -1.79396  3.50966
H-HA2-0.08960  6.66242  0.41498  4.32583
C-CA1-0.21329  3.88240  2.57295  1.30998
C-CA0--0.43067  4.67937  1.84320  0.43639
C-CA1-0.21329  3.45298  3.86103  0.83891
C-CA1-0.21329  5.11641  2.20511 -0.83243
H-HA0-0.20305  5.00104  0.85584  0.79259
C-CA2--0.22976  3.49807  2.10910  2.59392
C-CA0--0.43067  3.88982  4.22284 -0.43004
C-CA2--0.22976  2.63266  4.68614  1.64769
C-CA1-0.21329  4.68714  3.49325 -1.30347
C-CA2--0.22976  5.93616  1.37974 -1.64142
C-CA3--0.08200  2.69236  2.94519  3.35277
H-HA1-0.12268  3.81694  1.14465  2.95995
H-HA0-0.20305  3.56731  5.20984 -0.78664
C-CA3--0.08200  2.27095  4.19566  2.89313
H-HA1-0.12268  2.30010  5.65437  1.30439
C-CA2--0.22976  5.07126  3.95695 -2.58755
C-CA3--0.08200  6.29775  1.87008 -2.88691
H-HA1-0.12268  6.26751  0.41087 -1.29872
H-HA2-0.08960  2.38665  2.60344  4.33130
H-HA2-0.08960  1.64199  4.81558  3.51825
C-CA3--0.08200  5.87657  3.12064 -3.34650
H-HA1-0.12268  4.75162  4.92092 -2.95415
H-HA2-0.08960  6.92540  1.24942 -3.51259
H-HA2-0.08960  6.18116  3.46191 -4.32553
C-CA1-0.21329 12.43607  2.56624  1.29982
C-CA0--0.43067 13.23383  1.83653  0.42698
C-CA1-0.21329 12.00771  3.85471  0.82890
C-CA1-0.21329 13.67194  2.19857 -0.84137
H-HA0-0.20305 13.55476  0.84891  0.78319
C-CA2--0.22976 12.04933  2.10153  2.58261
C-CA0--0.43067 12.44600  4.21688 -0.43939
C-CA2--0.22976 11.18621  4.67945  1.63680
C-CA1-0.21329 13.24343  3.48696 -1.31245
C-CA2--0.22976 14.49221  1.37315 -1.64978
C-CA3--0.08200 11.24185  2.93684  3.34025
H-HA1-0.12268 12.36705  1.13663  2.94836
H-HA0-0.20305 12.12424  5.20416 -0.79596
C-CA3--0.08200 10.82152  4.18775  2.88083
H-HA1-0.12268 10.85427  5.64792  1.29360
C-CA2--0.22976 13.62845  3.95069 -2.59618
C-CA3--0.08200 14.85476  1.86356 -2.89490
H-HA1-0.12268 14.82370  0.40448 -1.30667
H-HA2-0.08960 10.93349  2.59367  4.31737
H-HA2-0.08960 10.19076  4.80698  3.50477
C-CA3--0.08200 14.43401  3.11424 -3.35467
H-HA1-0.12268 13.30980  4.91506 -2.96257
H-HA2-0.08960 15.48327  1.24302 -3.51981
H-HA2-0.08960 14.73955  3.45584 -4.33323
Tv 17.11778 -0.02581 -0.05227
Tv  0.00468  6.10728  0.01258
Tv -6.39198 -0.00159  9.24485

