%nprocshared=32
%mem=120GB
%chk=biphen.chk
#p opt freq wb97xd/6-311++g(d,p) scf=maxcycle=512

biphen_zmat.gjf nmol_natom 1_22

0 1
 C                 -0.74228700   -0.00000900   -0.00000400
 C                 -1.45656200   -1.11611900    0.44230600
 C                 -1.45655000    1.11611300   -0.44230300
 C                 -2.84549600   -1.11675600    0.44221300
 H                 -0.91752200   -1.98291000    0.80964200
 C                  0.74228700   -0.00000900    0.00000500
 C                 -2.84548300    1.11676300   -0.44221500
 H                 -0.91749900    1.98290200   -0.80962700
 C                 -3.54525300    0.00000500   -0.00000400
 H                 -3.38276400   -1.98952500    0.79649700
 C                  1.45656200   -1.11611900   -0.44230600
 C                  1.45655000    1.11611300    0.44230300
 H                 -3.38274200    1.98953900   -0.79649300
 H                 -4.62937800    0.00001200   -0.00000400
 C                  2.84549600   -1.11675600   -0.44221300
 H                  0.91752200   -1.98291000   -0.80964200
 C                  2.84548300    1.11676300    0.44221400
 H                  0.91749900    1.98290200    0.80962700
 C                  3.54525300    0.00000500    0.00000400
 H                  3.38276400   -1.98952500   -0.79649700
 H                  3.38274300    1.98953900    0.79649300
 H                  4.62937800    0.00001200    0.00000400

