# am1

biphen nmol_natom 2_22

0 1
 C                  3.83820400    2.81605200   -0.72029700
 C                  3.02187600    1.82172000   -1.18132500
 C                  4.24471800    3.80023200   -1.59332800
 C                  2.59049400    1.80762000   -2.51915400
 H                  2.51115900    1.03212000   -0.53739500
 C                  4.28179600    2.82394800    0.72029700
 C                  3.81277200    3.79177200   -2.95095500
 H                  4.93260100    4.55712000   -1.41419600
 C                  2.98563000    2.79744000   -3.40067000
 H                  2.01860800    1.08288000   -2.80010700
 C                  5.09812400    3.81828000    1.18132500
 C                  3.87528200    1.83976800    1.59332700
 H                  4.13515500    4.59096000   -3.62976900
 H                  2.67444400    2.79180000   -4.41229100
 C                  5.52950600    3.83238000    2.51915400
 H                  5.60884100    4.60788000    0.53739400
 C                  4.30722900    1.84822800    2.95095500
 H                  3.18739900    1.08288000    1.41419600
 C                  5.13437000    2.84256000    3.40067000
 H                  6.10139200    4.55712000    2.80010700
 H                  3.98484600    1.04904000    3.62976900
 H                  5.44555600    2.84820000    4.41229100
 C                  7.89820400    0.00394800   -0.72029700
 C                  7.08187600    0.99828000   -1.18132500
 C                  8.30471700   -0.98023200   -1.59332800
 C                  6.65049500    1.01238000   -2.51915400
 H                  6.57115800    1.78788000   -0.53739500
 C                  8.34179600   -0.00394800    0.72029700
 C                  7.87277100   -0.97177200   -2.95095500
 H                  8.99260000   -1.73712000   -1.41419600
 C                  7.04563000    0.02256000   -3.40067000
 H                  6.07860800    1.73712000   -2.80010700
 C                  9.15812400   -0.99828000    1.18132500
 C                  7.93528300    0.98023200    1.59332700
 H                  8.19515400   -1.77096000   -3.62976900
 H                  6.73444500    0.02820000   -4.41229100
 C                  9.58950600   -1.01238000    2.51915400
 H                  9.66884100   -1.78788000    0.53739400
 C                  8.36722900    0.97177200    2.95095500
 H                  7.24739900    1.73712000    1.41419600
 C                  9.19437000   -0.02256000    3.40067000
 H                 10.16139200   -1.73712000    2.80010700
 H                  8.04484600    1.77096000    3.62976900
 H                  9.50555500   -0.02820000    4.41229100
 Tv                 8.12000000    0.00000000    0.00000000
 Tv                 0.00000000    5.64000000    0.00000000
 Tv                -0.89120573    0.00000000    9.42797180

