%nprocshared=32
%mem=120GB
%chk=acanil.chk
#p opt freq wb97xd/6-311++g(d,p) scf=maxcycle=512

acanil_zmat.gjf nmol_natom 1_19

0 1
 C                 -0.30393000   -0.28653500   -0.00435500
 C                 -0.74928400    1.03620300   -0.00191500
 C                 -1.23759700   -1.32712000   -0.00227900
 C                 -2.11589400    1.29333300    0.00288200
 H                 -0.03220900    1.84285100   -0.00378800
 N                  1.05854900   -0.64789400   -0.00938200
 C                 -2.59609200   -1.05401000    0.00232000
 H                 -0.89617700   -2.35836400   -0.00418900
 C                 -3.04526900    0.26196600    0.00501500
 H                 -2.45230700    2.32415600    0.00480000
 C                  2.16772700    0.16026600   -0.00494900
 H                  1.23371000   -1.63912400   -0.01114400
 H                 -3.30488200   -1.87437200    0.00387200
 H                 -4.10700900    0.47849900    0.00866400
 C                  3.48842800   -0.58308300    0.00965100
 O                  2.12520600    1.37236000   -0.00324100
 H                  3.99522500   -0.36294400    0.95139700
 H                  4.10941900   -0.19499700   -0.79858000
 H                  3.39419400   -1.66545700   -0.09764700

