pair_coeff 6 6 lj/charmm/coul/long 0.0150 2.59964245953 # Spellmeyer 
pair_coeff 7 7 lj/charmm/coul/long 0.0157 2.64953278775 # OPLS 
pair_coeff 8 8 lj/charmm/coul/long 0.0157 1.06907846177 # !Ferguson base pair geom. 
pair_coeff 5 5 lj/charmm/coul/long 0.2100 2.95992190115 # OPLS 
pair_coeff 1 1 lj/charmm/coul/long 0.0860 3.39966950842 # OPLS 
pair_coeff 4 4 lj/charmm/coul/long 0.1094 3.39966950842 # OPLS 
pair_coeff 3 3 lj/charmm/coul/long 0.0860 3.39966950842 # OPLS 
pair_coeff 2 2 lj/charmm/coul/long 0.1700 3.24999852378 # OPLS 
bond_coeff 1 harmonic 337.3 1.0920 # SOURCE3 2815 0.0059 
bond_coeff 8 harmonic 478.4 1.3870 # SOURCE1 6228 0.0147 
bond_coeff 4 harmonic 344.3 1.0870 # SOURCE3 1496 0.0045 
bond_coeff 6 harmonic 372.3 1.4220 # SOURCE3 9 0.0098 
bond_coeff 5 harmonic 328.3 1.5080 # SOURCE1 2949 0.0060 
bond_coeff 3 harmonic 478.2 1.3450 # SOURCE1 1235 0.0215 
bond_coeff 7 harmonic 648.0 1.2140 # SOURCE1 3682 0.0165 
bond_coeff 2 harmonic 410.2 1.0090 # SOURCE3 149 0.0098 
angle_coeff 5 harmonic 47.20 109.68 # SOURCE3 614 0.6426 
angle_coeff 4 harmonic 39.43 108.35 # SOURCE3 2380 0.9006 
angle_coeff 2 harmonic 67.18 119.97 # SOURCE3 1969 0.3480 
angle_coeff 7 harmonic 48.46 120.01 # SOURCE3 2980 0.2511 
angle_coeff 8 harmonic 67.97 119.89 # SOURCE3 18 0.2095 
angle_coeff 9 harmonic 67.86 115.15 # SOURCE3 153 2.7443 
angle_coeff 10 harmonic 68.03 123.11 # SOURCE3 267 3.0977 
angle_coeff 3 harmonic 75.83 122.03 # SOURCE3 221 2.3565 
angle_coeff 11 harmonic 47.36 115.94 # SOURCE4 537 1.8890 
angle_coeff 6 harmonic 64.29 123.71 # SOURCE3 10 3.8159 
angle_coeff 1 harmonic 49.21 118.46 # SOURCE3 157 2.4094 
dihedral_coeff 4 fourier 1 0.0 2 180.0 # JCC, 7, (1986), 230 
dihedral_coeff 5 fourier 1 2.5 2 180.0 # AA,NMA (no c-n3, c-n4, c-nh) 
dihedral_coeff 2 fourier 1 3.625 2 180.0 # intrpol.bsd.on C6H6 
dihedral_coeff 3 fourier 1 0.45 2 180.0 # 
dihedral_coeff 6 fourier 2 2.5 2 180.0 2.0 1 0.0 # JCC,7,(1986),230 
dihedral_coeff 1 fourier 2 0.8 1 0.0 0.08 3 180.0 # Junmei et al, 1999 
improper_coeff 1 cvff 10.5 -1 2 # JCC,7,(1986),230 
improper_coeff 2 cvff 1.1 -1 2 # bsd.on C6H6 nmodes 
improper_coeff 3 cvff 1.1 -1 2 # JCC,7,(1986),230 
