pair_coeff 1 1 lj/charmm/coul/long   0.090060585887   3.433937714794
pair_coeff 2 2 lj/charmm/coul/long   0.111653566561   3.659645733147
pair_coeff 3 3 lj/charmm/coul/long   0.087963145575   3.504598051736
pair_coeff 4 4 lj/charmm/coul/long   0.103531417825   3.873635794480
pair_coeff 5 5 lj/charmm/coul/long   0.029143896751   1.862409708467
pair_coeff 6 6 lj/charmm/coul/long   0.099095841563   3.673905029637
pair_coeff 7 7 lj/charmm/coul/long   0.089089577866   3.485423877247
pair_coeff 8 8 lj/charmm/coul/long   0.001126341185   2.574356068136
pair_coeff 9 9 lj/charmm/coul/long   0.075325819128   3.703433116444
pair_coeff 10 10 lj/charmm/coul/long   0.010680540131   2.977995424972
pair_coeff 11 11 lj/charmm/coul/long   0.212674285541   2.762834860608
pair_coeff 12 12 lj/charmm/coul/long   0.001000000000   2.644109226609
pair_coeff 13 13 lj/charmm/coul/long   0.025268097645   2.377895038842
bond_coeff 1 harmonic 351.52143   1.46149
bond_coeff 2 harmonic 648.12038   1.21488
bond_coeff 3 harmonic 344.05344   1.08230
bond_coeff 4 harmonic 480.72206   1.35341
angle_coeff 1 harmonic  72.28391 120.02648
angle_coeff 2 harmonic  63.31964 116.63256
angle_coeff 3 harmonic  46.92703 125.30174
angle_coeff 4 harmonic  71.29282 125.40670
angle_coeff 5 harmonic  61.44555 113.08936
dihedral_coeff 1 fourier 4   0.16379 1   0.00000  3.69585 2 180.00000  1.44724 3   0.00000 -0.14576 4   0.00000
dihedral_coeff 2 fourier 4  -0.01690 1   0.00000  1.40012 2 180.00000 -1.21818 3   0.00000 -0.03255 4   0.00000
improper_coeff 1 cvff  10.50000 -1 2
improper_coeff 2 cvff   1.10000 -1 2
