# amber(Print,SoftOnly) 

./data/bpheno/res086/bpheno_optff86.gjf nmol_natom 1_24

0 1
C-CA0--0.06997  1.30292  0.34123 -0.02484
C-CA1-0.00012  1.41857 -0.87582 -0.69593
C-CA2--0.08598  2.40318  0.97005  0.54797
C-CA3--0.14426  2.64728 -1.51750 -0.73759
H-HA0-0.03841  0.55348 -1.33370 -1.15834
C-C-0.47772  0.00001  1.08157  0.00012
C-CA4--0.11541  3.62644  0.31771  0.50097
H-HA1-0.11961  2.30799  1.92793  1.04507
C-CA5--0.08108  3.74583 -0.91208 -0.13891
H-HA2-0.12916  2.74914 -2.46997 -1.24270
C-CA0--0.06997 -1.30290  0.34127  0.02490
O-O--0.50334  0.00001  2.30163  0.00024
H-HA3-0.11038  4.49749  0.77471  0.95355
H-HA4-0.11184  4.71041 -1.40388 -0.16687
C-CA1-0.00012 -1.41875 -0.87556  0.69635
C-CA2--0.08598 -2.40300  0.96994 -0.54838
C-CA3--0.14426 -2.64748 -1.51721  0.73788
H-HA0-0.03841 -0.55379 -1.33332  1.15912
C-CA4--0.11541 -3.62628  0.31764 -0.50152
H-HA1-0.11961 -2.30764  1.92767 -1.04575
C-CA5--0.08108 -3.74587 -0.91195  0.13871
H-HA2-0.12916 -2.74950 -2.46951  1.24326
H-HA3-0.11038 -4.49719  0.77452 -0.95447
H-HA4-0.11184 -4.71046 -1.40372  0.16657

