# amber(Print,SoftOnly) 

./data/bpheno/res086/bpheno_lat_optff86.gjf nmol_natom 4_24

0 1
C-CA0--0.06997  1.97017  5.73656  9.70144
C-CA1-0.00012  1.42456  5.10060 10.81564
C-CA2--0.08598  2.69825  5.04027  8.74354
C-CA3--0.14426  1.65846  3.74890 11.01205
H-HA0-0.03841  0.84139  5.65712 11.53755
C-C-0.47772  1.66073  7.17120  9.40746
C-CA4--0.11541  2.93533  3.69236  8.95881
H-HA1-0.11961  3.10012  5.53809  7.86977
C-CA5--0.08108  2.41625  3.05262 10.07929
H-HA2-0.12916  1.24361  3.24377 11.87405
C-CA0--0.06997  1.49771  8.17790 10.50559
O-O--0.50334  1.54722  7.52894  8.24675
H-HA3-0.11038  3.51106  3.12815  8.23847
H-HA4-0.11184  2.61085  1.99751 10.22550
C-CA1-0.00012  2.14586  8.03004 11.73156
C-CA2--0.08598  0.76198  9.31743 10.20098
C-CA3--0.14426  2.00178  9.01137 12.70004
H-HA0-0.03841  2.73741  7.14813 11.94151
C-CA4--0.11541  0.62648 10.29040 11.17736
H-HA1-0.11961  0.28080  9.43224  9.23852
C-CA5--0.08108  1.24845 10.14038 12.41150
H-HA2-0.12916  2.48553  8.90624 13.66226
H-HA3-0.11038  0.04548 11.18038 10.97297
H-HA4-0.11184  1.13495 10.91349 13.16035
C-CA0--0.06997  5.77280  0.62261  8.36265
C-CA1-0.00012  6.32065 -0.01083  7.24811
C-CA2--0.08598  5.04547 -0.07637  9.31914
C-CA3--0.14426  6.09006 -1.36286  7.04997
H-HA0-0.03841  6.90313  0.54787  6.52737
C-C-0.47772  6.08002  2.05726  8.65884
C-CA4--0.11541  4.81182 -1.42457  9.10220
H-HA1-0.11961  4.64157  0.41946 10.19311
C-CA5--0.08108  5.33350 -2.06197  7.98160
H-HA2-0.12916  6.50706 -1.86612  6.18785
C-CA0--0.06997  6.24377  3.06534  7.56227
O-O--0.50334  6.19204  2.41376  9.82001
H-HA3-0.11038  4.23727 -1.99104  9.82176
H-HA4-0.11184  5.14222 -3.11760  7.83467
C-CA1-0.00012  5.59461  2.91986  6.33667
C-CA2--0.08598  6.98125  4.20341  7.86790
C-CA3--0.14426  5.73911  3.90238  5.36944
H-HA0-0.03841  5.00171  2.03897  6.12627
C-CA4--0.11541  7.11755  5.17741  6.89258
H-HA1-0.11961  7.46308  4.31628  8.83030
C-CA5--0.08108  6.49451  5.02992  5.65861
H-HA2-0.12916  5.25439  3.79908  4.40754
H-HA3-0.11038  7.70005  6.06620  7.09772
H-HA4-0.11184  6.60847  5.80393  4.91057
C-CA0--0.06997  1.87367  4.50409  3.67306
C-CA1-0.00012  2.42230  5.13787  4.78701
C-CA2--0.08598  1.14551  5.20278  2.71695
C-CA3--0.14426  2.19189  6.48998  4.98491
H-HA0-0.03841  3.00544  4.57936  5.50736
C-C-0.47772  2.18086  3.06936  3.37718
C-CA4--0.11541  0.91194  6.55109  2.93355
H-HA1-0.11961  0.74099  4.70665  1.84346
C-CA5--0.08108  1.43469  7.18883  4.05353
H-HA2-0.12916  2.60942  6.99344  5.84670
C-CA0--0.06997  2.34606  2.06188  4.47411
O-O--0.50334  2.29189  2.71243  2.21608
H-HA3-0.11038  0.33640  7.11714  2.21438
H-HA4-0.11184  1.24358  8.24450  4.20035
C-CA1-0.00012  1.69746  2.20739  5.69997
C-CA2--0.08598  3.08504  0.92468  4.16902
C-CA3--0.14426  1.84468  1.22623  6.66823
H-HA0-0.03841  1.10316  3.08746  5.90980
C-CA4--0.11541  3.22390 -0.04812  5.14516
H-HA1-0.11961  3.56612  0.81168  3.20636
C-CA5--0.08108  2.60183  0.09967  6.37959
H-HA2-0.12916  1.36067  1.32982  7.63047
H-HA3-0.11038  3.80775 -0.93615  4.94036
H-HA4-0.11184  2.71796 -0.67333  7.12834
C-CA0--0.06997  5.86013  9.61842  2.34186
C-CA1-0.00012  5.30608 10.25305  1.23105
C-CA2--0.08598  6.59067 10.31681  3.29635
C-CA3--0.14426  5.53283 11.60600  1.03484
H-HA0-0.03841  4.72123  9.69475  0.51191
C-C-0.47772  5.55777  8.18232  2.63603
C-CA4--0.11541  6.82101 11.66589  3.08092
H-HA1-0.11961  6.99944  9.81986  4.16746
C-CA5--0.08108  6.29278 12.30458  1.96409
H-HA2-0.12916  5.11056 12.11029  0.17591
C-CA0--0.06997  5.38781  7.17774  1.53735
O-O--0.50334  5.45446  7.82182  3.79680
H-HA3-0.11038  7.39850 12.23184  3.79855
H-HA4-0.11184  6.48169 13.36075  1.81800
C-CA1-0.00012  6.03347  7.32528  0.31021
C-CA2--0.08598  4.64901  6.04043  1.84223
C-CA3--0.14426  5.88365  6.34582 -0.65934
H-HA0-0.03841  6.62738  8.20561  0.10037
C-CA4--0.11541  4.50736  5.06955  0.86461
H-HA1-0.11961  4.17005  5.92601  2.80575
C-CA5--0.08108  5.12683  5.21914 -0.37084
H-HA2-0.12916  6.36557  6.45058 -1.62248
H-HA3-0.11038  3.92355  4.18146  1.06900
H-HA4-0.11184  5.00877  4.44757 -1.12066
Tv  7.79501 -0.00633  0.00974
Tv -0.00558 10.21574  0.00977
Tv  0.01684 -0.02482 12.04155

