%nprocshared=32
%mem=120GB
%chk=_conf060.chk
#P wB97XD/6-311++G(d,p) scf=maxcycle=512

_conf060.gjf nmol_natom 1_19 

0 1
C 
C    1     1.39447505 
C    1     1.39873503    2   119.56697224 
C    2     1.39066123    1   119.42697207    3     2.53915756 
H    2     0.96213008    1   119.80461630    3  -177.79870417 
N    1     1.41693372    2   123.72220125    4  -177.74604849 
C    3     1.38667133    1   120.18759987    2    -2.50208570 
H    3     0.95673174    1   118.82085988    2   177.96737168 
C    4     1.38268572    2   121.03929493    1    -0.41221113 
H    4     0.98585950    2   118.57912670    1   178.77373233 
C    6     1.35500692    1   127.62132737    2    17.57862687 
H    6     0.89609466    1   115.10511997    2  -166.41127095 
H    7     0.98847198    3   119.08117704    1  -179.64585354 
H    9     0.98451201    4   120.53755637    2   177.22743544 
C   11     1.50274561    6   115.46861532    1   -60.00000000 
O   11     1.23496495    6   123.15099888    1   120.00000000 
H   15     0.98719837   11   107.47091875    6  -116.36962839 
H   15     0.99976021   11   109.69443261    6   128.85346087 
H   15     0.97696155   11   114.37008871    6     6.05302844 

