# amber(Print,SoftOnly) 

./data/acanil/res099/acanil_lat_iniff99.gjf nmol_natom 8_19

0 1
C-CA0-0.50115 11.57262  5.35592  2.94225
C-CA1--0.33661 11.89897  6.53847  3.62286
C-CA1--0.33661 12.56502  4.39040  2.73552
C-CA2--0.02468 13.20604  6.75826  4.06961
H-HA0-0.18930 11.14590  7.29205  3.81936
N-N--0.81562 10.25998  5.06891  2.46338
C-CA2--0.02468 13.87470  4.61170  3.17574
H-HA0-0.18930 12.32730  3.46616  2.21818
C-CA3--0.17880 14.19474  5.79846  3.84055
H-HA1-0.09783 13.45614  7.67622  4.59241
C-C-0.86225  9.26968  5.90706  2.11105
H-HN-0.38524 10.08342  4.08742  2.31454
H-HA1-0.09783 14.64426  3.86731  2.99246
H-HA2-0.11288 15.21005  5.97570  4.18309
C-C3--0.48253  8.05378  5.22394  1.54648
O-O--0.63692  9.34226  7.11338  2.20674
H-HC-0.13356  8.26862  4.86328  0.54025
H-HC-0.13356  7.21542  5.91984  1.50079
H-HC-0.13356  7.75960  4.37327  2.16144
C-CA0-0.50115 11.57224  8.73504  6.58234
C-CA1--0.33661 11.89934  7.58499  7.31625
C-CA1--0.33661 12.56381  9.69133  6.33281
C-CA2--0.02468 13.20657  7.38679  7.77269
H-HA0-0.18930 11.14683  6.84040  7.54647
N-N--0.81562 10.26033  8.99733  6.08737
C-CA2--0.02468 13.87351  9.49151  6.78292
H-HA0-0.18930 12.32595 10.59068  5.77353
C-CA3--0.17880 14.19459  8.33601  7.50019
H-HA1-0.09783 13.45729  6.49356  8.33658
C-C-0.86225  9.27213  8.14217  5.77176
H-HN-0.38524 10.08357  9.97032  5.89061
H-HA1-0.09783 14.64239 10.22760  6.56616
H-HA2-0.11288 15.21035  8.17514  7.84946
C-C3--0.48253  8.05922  8.79622  5.16793
O-O--0.63692  9.34443  6.94193  5.92651
H-HC-0.13356  8.28216  9.11529  4.14949
H-HC-0.13356  7.22421  8.09535  5.14327
H-HC-0.13356  7.75619  9.67052  5.74427
C-CA0-0.50115  7.90861 10.30764  1.08392
C-CA1--0.33661  7.58510 11.46177  0.35502
C-CA1--0.33661  6.91459  9.35246  1.32818
C-CA2--0.02468  6.27865 11.66579 -0.10068
H-HA0-0.18930  8.33975 12.20532  0.12862
N-N--0.81562  9.21991 10.03943  1.57694
C-CA2--0.02468  5.60571  9.55748  0.87741
H-HA0-0.18930  7.15036  8.45002  1.88352
C-CA3--0.17880  5.28811 10.71761  0.16592
H-HA1-0.09783  6.03052 12.56278 -0.65953
C-C-0.86225 10.21176 10.88997  1.89374
H-HN-0.38524  9.39471  9.06490  1.76759
H-HA1-0.09783  4.83477  8.82186  1.08885
H-HA2-0.11288  4.27326 10.88304 -0.18385
C-C3--0.48253 11.42762 10.23037  2.48609
O-O--0.63692 10.14102 12.09137  1.74794
H-HC-0.13356 11.23791  9.98468  3.53111
H-HC-0.13356 12.28638 10.90028  2.42936
H-HC-0.13356 11.67692  9.31028  1.95687
C-CA0-0.50115  7.90688  3.69858  4.94872
C-CA1--0.33661  7.58447  2.51263  4.27219
C-CA1--0.33661  6.91181  4.66250  5.15041
C-CA2--0.02468  6.27829  2.28711  3.82599
H-HA0-0.18930  8.33970  1.76039  4.07898
N-N--0.81562  9.21805  3.99078  5.42828
C-CA2--0.02468  5.60311  4.43601  4.70944
H-HA0-0.18930  7.14691  5.58923  5.66466
C-CA3--0.17880  5.28669  3.24509  4.05019
H-HA1-0.09783  6.03121  1.36591  3.30754
C-C-0.86225 10.21237  3.15694  5.77947
H-HN-0.38524  9.39086  4.97296  5.57688
H-HA1-0.09783  4.83135  5.17937  4.88806
H-HA2-0.11288  4.27197  3.06312  3.70821
C-C3--0.48253 11.42736  3.84439  6.34100
O-O--0.63692 10.14419  1.95033  5.68499
H-HC-0.13356 11.23038  4.15681  7.36674
H-HC-0.13356 12.28186  3.16678  6.33474
H-HC-0.13356 11.68737  4.72743  5.75681
C-CA0-0.50115 17.68912 10.34775  2.83301
C-CA1--0.33661 17.36421 11.53286  3.50992
C-CA1--0.33661 16.69572  9.38227  2.63054
C-CA2--0.02468 16.05732 11.75592  3.95544
H-HA0-0.18930 18.11800 12.28630  3.70411
N-N--0.81562 19.00084 10.05834  2.35281
C-CA2--0.02468 15.38629  9.60651  3.07026
H-HA0-0.18930 16.93244  8.45592  2.11652
C-CA3--0.17880 15.06730 10.79675  3.72938
H-HA1-0.09783 15.80841 12.67629  4.47459
C-C-0.86225 19.99258 10.89469  2.00011
H-HN-0.38524 19.17511  9.07666  2.20258
H-HA1-0.09783 14.61595  8.86193  2.89063
H-HA2-0.11288 14.05174 10.97708  4.06980
C-C3--0.48253 21.20621 10.21002  1.43255
O-O--0.63692 19.92283 12.10097  2.09749
H-HC-0.13356 20.99090  9.85722  0.42367
H-HC-0.13356 22.04762 10.90261  1.39260
H-HC-0.13356 21.49606  9.35392  2.04196
C-CA0-0.50115 21.35071  5.31562  1.19874
C-CA1--0.33661 21.67426  6.46775  0.46659
C-CA1--0.33661 22.34431  4.36034  1.44415
C-CA2--0.02468 22.98016  6.66923  0.00797
H-HA0-0.18930 20.91998  7.21149  0.23952
N-N--0.81562 20.03995  5.04954  1.69438
C-CA2--0.02468 23.65259  4.56299  0.99091
H-HA0-0.18930 22.10890  3.45959  2.00233
C-CA3--0.17880 23.97013  5.72062  0.27537
H-HA1-0.09783 23.22823  7.56436 -0.55399
C-C-0.86225 19.04897  5.90139  2.01005
H-HN-0.38524 19.86510  4.07570  1.88849
H-HA1-0.09783 24.42311  3.82742  1.20374
H-HA2-0.11288 24.98455  5.88375 -0.07667
C-C3--0.48253 17.83488  5.24303  2.60712
O-O--0.63692 19.11937  7.10228  1.85968
H-HC-0.13356 18.04097  4.96119  3.63993
H-HC-0.13356 16.98647  5.92793  2.58960
H-HC-0.13356 17.56061  4.34462  2.05367
C-CA0-0.50115 17.68976  3.74036  6.69737
C-CA1--0.33661 17.36294  2.58712  7.42632
C-CA1--0.33661 16.69776  4.69717  6.45127
C-CA2--0.02468 16.05538  2.38565  7.88012
H-HA0-0.18930 18.11577  1.84218  7.65434
N-N--0.81562 19.00198  4.00549  6.20471
C-CA2--0.02468 15.38766  4.49434  6.89930
H-HA0-0.18930 16.93586  5.59919  5.89631
C-CA3--0.17880 15.06673  3.33497  7.61044
H-HA1-0.09783 15.80487  1.48959  8.43955
C-C-0.86225 19.99120  3.15207  5.88732
H-HN-0.38524 19.17858  4.97932  6.01215
H-HA1-0.09783 14.61831  5.23105  6.68581
H-HA2-0.11288 14.05068  3.17114  7.95750
C-C3--0.48253 21.20602  3.80817  5.28928
O-O--0.63692 19.91856  1.95120  6.03646
H-HC-0.13356 20.99750  4.09579  4.25856
H-HC-0.13356 22.05184  3.11985  5.30018
H-HC-0.13356 21.48563  4.70271  5.84615
C-CA0-0.50115 21.35588  8.68934  4.83719
C-CA1--0.33661 21.67980  7.50578  4.15728
C-CA1--0.33661 22.34941  9.65442  5.04075
C-CA2--0.02468 22.98569  7.28458  3.70792
H-HA0-0.18930 20.92568  6.75262  3.96328
N-N--0.81562 20.04413  8.97865  5.31675
C-CA2--0.02468 23.65781  9.43200  4.59712
H-HA0-0.18930 22.11334 10.57923  5.55790
C-CA3--0.17880 23.97539  8.24433  3.93269
H-HA1-0.09783 23.23403  6.36572  3.18598
C-C-0.86225 19.05128  8.14301  5.66770
H-HN-0.38524 19.86905  9.96061  5.46422
H-HA1-0.09783 24.42823 10.17633  4.77709
H-HA2-0.11288 24.98946  8.06629  3.58697
C-C3--0.48253 17.83428  8.82914  6.22662
O-O--0.63692 19.12206  6.93635  5.57472
H-HC-0.13356 18.03171  9.15054  7.24955
H-HC-0.13356 16.98275  8.14780  6.22733
H-HC-0.13356 17.56926  9.70642  5.63600
Tv 19.56990  0.00271 -0.00443
Tv  0.00106  9.97708 -0.21936
Tv  0.00159  0.15183  7.42949

