# amber(Print,SoftOnly) 

./data/acanil/res099/acanil_optff99.gjf nmol_natom 1_19

0 1
C-CA0-0.50115 -0.30540 -0.28588 -0.12343
C-CA1--0.33661 -0.75372  1.02593 -0.09217
C-CA1--0.33661 -1.21134 -1.32967 -0.08342
C-CA2--0.02468 -2.11183  1.29380 -0.08122
H-HA0-0.18930 -0.04541  1.82565  0.08147
N-N--0.81562  1.05066 -0.60051  0.16193
C-CA2--0.02468 -2.57107 -1.06705 -0.07198
H-HA0-0.18930 -0.86178 -2.33685  0.09328
C-CA3--0.17880 -3.01729  0.24486 -0.07611
H-HA1-0.09783 -2.45863  2.31039  0.06246
C-C-0.86225  2.20352  0.15496 -0.00671
H-HN-0.38524  1.09577 -1.57561 -0.01133
H-HA1-0.09783 -3.27446 -1.87778  0.07749
H-HA2-0.11288 -4.07239  0.45049  0.06160
C-C3--0.48253  3.49122 -0.63920 -0.01257
O-O--0.63692  2.19873  1.37022  0.11720
H-HC-0.13356  4.02585 -0.29589  0.87664
H-HC-0.13356  4.07299 -0.18461 -0.81819
H-HC-0.13356  3.27638 -1.70751 -0.10779

