pair_coeff 1 1 lj/charmm/coul/long   0.098534617117   3.462240797892
pair_coeff 2 2 lj/charmm/coul/long   0.131349028750   3.169913683666
pair_coeff 3 3 lj/charmm/coul/long   0.139535343095   3.812550870433
pair_coeff 4 4 lj/charmm/coul/long   0.104909992420   3.598859571624
pair_coeff 5 5 lj/charmm/coul/long   0.029999727881   1.665429922866
pair_coeff 6 6 lj/charmm/coul/long   0.001989430104   2.868256694973
pair_coeff 7 7 lj/charmm/coul/long   0.025118605793   2.968615045831
pair_coeff 8 8 lj/charmm/coul/long   0.185415239655   3.469556246078
pair_coeff 9 9 lj/charmm/coul/long   0.026043664957   1.152514791389
pair_coeff 10 10 lj/charmm/coul/long   0.126053858447   3.981336911360
pair_coeff 11 11 lj/charmm/coul/long   0.202829644913   2.358817968804
pair_coeff 12 12 lj/charmm/coul/long   0.109511302547   3.261324774193
pair_coeff 13 13 lj/charmm/coul/long   0.031399999912   2.160845530925
bond_coeff 1 harmonic 337.35011   1.09412
bond_coeff 2 harmonic 410.52985   0.99736
bond_coeff 3 harmonic 478.48378   1.39127
bond_coeff 4 harmonic 344.59230   1.08226
bond_coeff 5 harmonic 328.21640   1.51784
bond_coeff 6 harmonic 372.36792   1.41722
bond_coeff 7 harmonic 648.03371   1.22608
bond_coeff 8 harmonic 479.34302   1.35177
angle_coeff 1 harmonic  53.38494 122.37762
angle_coeff 2 harmonic  66.70973 120.94594
angle_coeff 3 harmonic  76.08737 121.87856
angle_coeff 4 harmonic  34.55048 112.37866
angle_coeff 5 harmonic  55.55191 105.23927
angle_coeff 6 harmonic  55.85853 129.34377
angle_coeff 7 harmonic  57.86573 124.17646
angle_coeff 8 harmonic  72.43115 120.80351
angle_coeff 9 harmonic  68.98090 114.41190
angle_coeff 10 harmonic  67.90053 123.67905
angle_coeff 11 harmonic  37.26610 107.92205
dihedral_coeff 1 fourier 4   1.27311 1   0.00000 -5.45397 2   0.00000 -4.42007 3 180.00000  1.02944 4   0.00000
dihedral_coeff 2 fourier 4   2.94752 1   0.00000 12.01997 2 180.00000 -2.34074 3   0.00000  2.25134 4   0.00000
dihedral_coeff 3 fourier 4  -0.35549 1   0.00000  0.76478 2 180.00000  1.66748 3   0.00000  0.05278 4   0.00000
dihedral_coeff 4 fourier 4  -0.20123 1   0.00000  4.18740 2 180.00000 -0.39414 3   0.00000  1.39290 4   0.00000
dihedral_coeff 5 fourier 4   1.41489 1   0.00000  2.92458 2 180.00000  2.96498 3   0.00000  1.43116 4   0.00000
dihedral_coeff 6 fourier 4   1.58084 1   0.00000  4.57831 2 180.00000  2.88928 3   0.00000 -3.51114 4   0.00000
improper_coeff 1 cvff  10.50000 -1 2
improper_coeff 2 cvff   1.10000 -1 2
improper_coeff 3 cvff   1.10000 -1 2
