pair_coeff 1 1 lj/charmm/coul/long   0.086108993485   3.464055260361
pair_coeff 2 2 lj/charmm/coul/long   0.085445039082   3.418196694750
pair_coeff 3 3 lj/charmm/coul/long   0.085060578925   3.407044216623
pair_coeff 4 4 lj/charmm/coul/long   0.093416018460   3.764871350582
pair_coeff 5 5 lj/charmm/coul/long   0.084804125414   3.327339104065
pair_coeff 6 6 lj/charmm/coul/long   0.085945892708   3.503475158316
pair_coeff 7 7 lj/charmm/coul/long   0.087465852457   3.519489982815
pair_coeff 8 8 lj/charmm/coul/long   0.208837001570   3.011044055524
pair_coeff 9 9 lj/charmm/coul/long   0.087307946749   3.577913184915
pair_coeff 10 10 lj/charmm/coul/long   0.022065509553   2.802070449405
pair_coeff 11 11 lj/charmm/coul/long   0.088640462351   3.505802557825
pair_coeff 12 12 lj/charmm/coul/long   0.016485430549   2.467484625185
pair_coeff 13 13 lj/charmm/coul/long   0.087893812533   3.576700209189
pair_coeff 14 14 lj/charmm/coul/long   0.023374401822   2.799358242707
pair_coeff 15 15 lj/charmm/coul/long   0.020643906756   2.716201725536
pair_coeff 16 16 lj/charmm/coul/long   0.002398030053   0.971278195759
pair_coeff 17 17 lj/charmm/coul/long   0.020330669952   2.690874053533
pair_coeff 18 18 lj/charmm/coul/long   0.012144532004   2.654310856828
pair_coeff 19 19 lj/charmm/coul/long   0.021223758075   2.743160746265
bond_coeff 1 harmonic 369.52046   0.95838
bond_coeff 2 harmonic 386.21672   1.34466
bond_coeff 3 harmonic 344.49963   1.08250
bond_coeff 4 harmonic 476.94408   1.37253
angle_coeff 1 harmonic  70.67610 121.31487
angle_coeff 2 harmonic  53.99950 114.08732
angle_coeff 3 harmonic  63.36972 126.88258
angle_coeff 4 harmonic  48.22409 108.43501
dihedral_coeff 1 fourier 4  -0.04559 1   0.00000  4.01271 2 180.00000 -0.43587 3   0.00000  0.35936 4   0.00000
dihedral_coeff 2 fourier 4  -0.44285 1   0.00000  0.80846 2 180.00000 -5.83515 3   0.00000 -0.07154 4   0.00000
improper_coeff 1 cvff   1.10000 -1 2
