# amber(Print,SoftOnly) 

./data/tphben/res095/tphben_optff95.gjf nmol_natom 1_42

0 1
C-CP0-0.04231 -1.25118 -0.65939 -0.03578
C-CA0--0.16358 -0.05306 -1.36888  0.00011
C-CA0--0.16358 -1.15852  0.73042 -0.03368
C-CP0-0.04231  1.19638 -0.75427  0.03600
H-HA0-0.09080 -0.09499 -2.45054  0.00013
C-CP1-0.11652 -2.56156 -1.34994 -0.07566
C-CP0-0.04231  0.05480  1.41390  0.00008
H-HA0-0.09080 -2.07397  1.30735 -0.06265
C-CA0--0.16358  1.21158  0.63854  0.03384
C-CP1-0.11652  2.44938 -1.54417  0.07589
C-CA1--0.15998 -2.75846 -2.52812 -0.80518
C-CA1--0.15998 -3.68042 -0.86598  0.61180
C-CP1-0.11652  0.11221  2.89473  0.00006
H-HA0-0.09080  2.16894  1.14288  0.06282
C-CA1--0.15998  2.55446 -2.73411  0.80534
C-CA1--0.15998  3.60239 -1.14821 -0.61147
C-CA2--0.07151 -3.98629 -3.19356 -0.85730
H-HA1-0.10679 -1.94299 -2.96363 -1.36468
C-CA2--0.07151 -4.92337 -1.50452  0.58493
H-HA1-0.10679 -3.60830  0.03831  1.19876
C-CA1--0.15998 -0.82297  3.67586  0.68875
C-CA1--0.15998  1.10507  3.60111 -0.68863
C-CA2--0.07151  3.72710 -3.49259  0.85748
H-HA1-0.10679  1.70769 -3.10524  1.36475
C-CA2--0.07151  4.79219 -1.88104 -0.58457
H-HA1-0.10679  3.60051 -0.24100 -1.19836
C-CA3--0.11162 -5.07875 -2.67797 -0.15644
H-HA2-0.09073 -4.09000 -4.09810 -1.43847
H-HA2-0.09073 -5.75734 -1.09348  1.13449
C-CA2--0.07151 -0.78457  5.07288  0.70098
H-HA1-0.10679 -1.61969  3.20464  1.24615
C-CA2--0.07151  1.17495  4.99690 -0.70088
H-HA1-0.10679  1.86292  3.06960 -1.24602
C-CA3--0.11162  4.85624 -3.06304  0.15673
H-HA2-0.09073  3.76045 -4.40248  1.43858
H-HA2-0.09073  5.65551 -1.53573 -1.13404
H-HA3-0.09350 -6.03371 -3.18106 -0.18803
C-CA3--0.11162  0.22252  5.73996  0.00005
H-HA2-0.09073 -1.52758  5.63211  1.25035
H-HA2-0.09073  1.95902  5.49692 -1.25026
H-HA3-0.09350  5.76939 -3.63853  0.18833
H-HA3-0.09350  0.26436  6.81898  0.00005

