pair_coeff 1 1 lj/charmm/coul/long   0.095437798833   3.554647469424
pair_coeff 2 2 lj/charmm/coul/long   0.098210525460   3.424883975716
pair_coeff 3 3 lj/charmm/coul/long   0.018130158377   2.484813187581
pair_coeff 4 4 lj/charmm/coul/long   0.099145304678   3.699262704082
pair_coeff 5 5 lj/charmm/coul/long   0.074649578187   3.552257188163
pair_coeff 6 6 lj/charmm/coul/long   0.083408706016   3.647357546486
pair_coeff 7 7 lj/charmm/coul/long   0.093167284550   3.631076609218
pair_coeff 8 8 lj/charmm/coul/long   0.016258399934   2.480293225910
pair_coeff 9 9 lj/charmm/coul/long   0.004526858984   2.353253589143
pair_coeff 10 10 lj/charmm/coul/long   0.013648061841   2.491745960301
bond_coeff 1 harmonic 344.28501   1.07996
bond_coeff 2 harmonic 463.31277   1.36230
bond_coeff 3 harmonic 478.90557   1.36716
bond_coeff 4 harmonic 349.09760   1.45475
angle_coeff 1 harmonic  67.46039 117.94109
angle_coeff 2 harmonic  49.61729 121.26307
angle_coeff 3 harmonic  67.55043 117.79663
angle_coeff 4 harmonic  66.40772 121.63907
angle_coeff 5 harmonic  64.73958 123.52944
angle_coeff 6 harmonic  46.68816 119.28319
dihedral_coeff 1 fourier 4  -0.00840 1   0.00000  3.56407 2 180.00000 -0.07493 3   0.00000  0.24346 4   0.00000
dihedral_coeff 2 fourier 4  -0.06455 1   0.00000  6.06733 2 180.00000 -0.57742 3   0.00000 -8.43670 4   0.00000
dihedral_coeff 3 fourier 4  -0.00143 1   0.00000  0.92815 2 180.00000 -0.07604 3   0.00000 -0.03097 4   0.00000
improper_coeff 1 cvff   1.10000 -1 2
