# amber(Print,SoftOnly) 

./data/naphol/res090/naphol_optff90.gjf nmol_natom 1_19

0 1
C-CA0--0.01205  0.03411  0.45478 -0.00037
C-CA1-0.23885  0.39649 -0.91407 -0.00017
C-CA2-0.29435 -1.33462  0.80126  0.00093
C-CA3--0.35342 -0.59837 -1.90314 -0.00008
C-CA4--0.29257  1.75158 -1.28122  0.00005
C-CA5--0.09593  1.05397  1.42689 -0.00025
C-CA6--0.31771 -2.31246 -0.20000  0.00013
O-OH--0.61982 -1.75586  2.10014  0.00099
C-CA7--0.01422 -1.94733 -1.54670 -0.00009
H-HA0-0.16621 -0.32998 -2.96128 -0.00003
C-CA8--0.00550  2.74847 -0.30326  0.00005
H-HA1-0.14932  2.04312 -2.33319  0.00014
C-CA9--0.17577  2.39920  1.04764 -0.00006
H-HA2-0.12203  0.81270  2.49140 -0.00016
H-HA3-0.16309 -3.37260  0.05996  0.00004
H-HO-0.43604 -2.72590  2.11524 -0.00133
H-HA4-0.10745 -2.71712 -2.32081 -0.00010
H-HA5-0.08708  3.80049 -0.59425  0.00006
H-HA6-0.12257  3.17975  1.80987 -0.00007

