pair_coeff 1 1 lj/charmm/coul/long   0.085071962425   3.382734757841
pair_coeff 2 2 lj/charmm/coul/long   0.084453389715   3.372070139415
pair_coeff 3 3 lj/charmm/coul/long   0.086615548616   3.376045529415
pair_coeff 4 4 lj/charmm/coul/long   0.087329671269   3.432415497907
pair_coeff 5 5 lj/charmm/coul/long   0.086962566125   3.381242883704
pair_coeff 6 6 lj/charmm/coul/long   0.087832357663   3.400187878447
pair_coeff 7 7 lj/charmm/coul/long   0.088488080926   3.398104868723
pair_coeff 8 8 lj/charmm/coul/long   0.208515974042   3.117715749460
pair_coeff 9 9 lj/charmm/coul/long   0.087403647354   3.420336122407
pair_coeff 10 10 lj/charmm/coul/long   0.029679566314   2.658490144062
pair_coeff 11 11 lj/charmm/coul/long   0.088827858213   3.398478799859
pair_coeff 12 12 lj/charmm/coul/long   0.029676626089   2.608873602863
pair_coeff 13 13 lj/charmm/coul/long   0.088659469094   3.407117132981
pair_coeff 14 14 lj/charmm/coul/long   0.029669965914   2.619694620862
pair_coeff 15 15 lj/charmm/coul/long   0.029497123309   2.624970984568
pair_coeff 16 16 lj/charmm/coul/long   0.007171484029   1.001186660490
pair_coeff 17 17 lj/charmm/coul/long   0.029676705749   2.611376460296
pair_coeff 18 18 lj/charmm/coul/long   0.029522299613   2.659067673887
pair_coeff 19 19 lj/charmm/coul/long   0.029675530085   2.612993957357
bond_coeff 1 harmonic 369.59809   0.97142
bond_coeff 2 harmonic 386.09956   1.36009
bond_coeff 3 harmonic 344.30775   1.08995
bond_coeff 4 harmonic 478.48312   1.38541
angle_coeff 1 harmonic  69.31552 119.97824
angle_coeff 2 harmonic  48.63685 119.79210
angle_coeff 3 harmonic  66.94389 120.20157
angle_coeff 4 harmonic  48.82771 109.47351
dihedral_coeff 1 fourier 4  -0.02816 1   0.00000  3.41520 2 180.00000 -0.25725 3   0.00000  0.79036 4   0.00000
dihedral_coeff 2 fourier 4  -0.34194 1   0.00000  1.53724 2 180.00000 -1.83043 3   0.00000  0.89360 4   0.00000
improper_coeff 1 cvff   1.10000 -1 2
