# amber(Print,SoftOnly) 

./data/naphol/res086/naphol_lat_optff86.gjf nmol_natom 4_19

0 1
C-CA0--0.00263  2.31234 -0.01321  3.29779
C-CA1-0.23873  0.99642 -0.08771  2.73697
C-CA2-0.29110  3.27307  0.83604  2.70286
C-CA3--0.35651  0.67750  0.71314  1.63590
C-CA4--0.29280  0.06154 -0.94458  3.32843
C-CA5--0.08136  2.57530 -0.79922  4.43403
C-CA6--0.33244  2.87093  1.66329  1.65425
O-OH--0.62229  4.38384  1.19587  3.37251
C-CA7--0.02115  1.60197  1.59420  1.10341
H-HA0-0.16146 -0.32205  0.68850  1.22170
C-CA8--0.00488  0.36645 -1.71727  4.43690
H-HA1-0.14796 -0.93572 -1.02116  2.91044
C-CA9--0.17224  1.62718 -1.64248  4.99482
H-HA2-0.14787  3.56310 -0.78376  4.88056
H-HA3-0.14292  3.53827  2.43912  1.29958
H-HO-0.44535  4.56829  2.11585  3.15320
H-HA4-0.09971  1.32028  2.26470  0.29999
H-HA5-0.08668 -0.37424 -2.38668  4.85279
H-HA6-0.12452  1.87573 -2.25580  5.85243
C-CA0--0.00263  7.84925  2.37160  2.62472
C-CA1-0.23873  9.16728  2.29951  3.18086
C-CA2-0.29110  6.89031  3.22190  3.22111
C-CA3--0.35651  9.48986  3.10341  4.27865
C-CA4--0.29280 10.10029  1.44119  2.58881
C-CA5--0.08136  7.58241  1.58177  1.49193
C-CA6--0.33244  7.29535  4.05097  4.26727
O-OH--0.62229  5.77794  3.58105  2.55374
C-CA7--0.02115  8.56644  3.98407  4.81355
H-HA0-0.16146 10.49136  3.08183  4.68820
C-CA8--0.00488  9.79131  0.66389  1.48487
H-HA1-0.14796 11.09907  1.36630  3.00339
C-CA9--0.17224  8.52850  0.73614  0.93122
H-HA2-0.14787  6.59307  1.59547  1.04872
H-HA3-0.14292  6.62896  4.82744  4.62261
H-HO-0.44535  5.59449  4.50146  2.77190
H-HA4-0.09971  8.85126  4.65748  5.61359
H-HA5-0.08668 10.53076 -0.00724  1.07006
H-HA6-0.12452  8.27666  0.11903  0.07727
C-CA0--0.00263  4.80533  0.02490  8.52237
C-CA1-0.23873  6.12196  0.09916  9.08157
C-CA2-0.29110  3.84534 -0.82462  9.11815
C-CA3--0.35651  6.44239 -0.70264 10.18151
C-CA4--0.29280  7.05599  0.95659  8.48952
C-CA5--0.08136  4.54102  0.81123  7.38666
C-CA6--0.33244  4.24897 -1.65288 10.16538
O-OH--0.62229  2.73330 -1.18345  8.45006
C-CA7--0.02115  5.51877 -1.58438 10.71436
H-HA0-0.16146  7.44250 -0.67843 10.59435
C-CA8--0.00488  6.74979  1.72955  7.38158
H-HA1-0.14796  8.05364  1.03335  8.90654
C-CA9--0.17224  5.48849  1.65461  6.82494
H-HA2-0.14787  3.55275  0.79573  6.94116
H-HA3-0.14292  3.58214 -2.42908 10.52026
H-HO-0.44535  2.54853 -2.10344  8.66897
H-HA4-0.09971  5.80176 -2.25590 11.51646
H-HA5-0.08668  7.48993  2.39926  6.96512
H-HA6-0.12452  5.23899  2.26793  5.96761
C-CA0--0.00263 -0.72950  2.41483  9.18937
C-CA1-0.23873 -2.04680  2.48750  8.63159
C-CA2-0.29110  0.23016  1.56507  8.59344
C-CA3--0.35651 -2.36819  1.68425  7.53297
C-CA4--0.29280 -2.98037  3.34562  9.22303
C-CA5--0.08136 -0.46404  3.20356 10.32324
C-CA6--0.33244 -0.17386  0.73623  7.54670
O-OH--0.62229  1.34246  1.20664  9.26128
C-CA7--0.02115 -1.44433  0.80347  6.99898
H-HA0-0.16146 -3.36918  1.70643  7.12208
C-CA8--0.00488 -2.67272  4.12186 10.32809
H-HA1-0.14796 -3.97861  3.42099  8.80721
C-CA9--0.17224 -1.41072  4.04880 10.88346
H-HA2-0.14787  0.52458  3.18903 10.76799
H-HA3-0.14292  0.49286 -0.04017  7.19191
H-HO-0.44535  1.52711  0.28652  9.04282
H-HA4-0.09971 -1.72831  0.13039  6.19836
H-HA5-0.08668 -3.41262  4.79260 10.74269
H-HA6-0.12452 -1.16007  4.66476 11.73858
Tv 13.26932  0.02385 -0.02661
Tv  0.00165  4.77692 -0.00362
Tv -6.05851  0.00165 11.77061

