pair_coeff 1 1 lj/charmm/coul/long   0.086039069536   3.463389141555
pair_coeff 2 2 lj/charmm/coul/long   0.085071239678   3.412326570531
pair_coeff 3 3 lj/charmm/coul/long   0.085061662623   3.403767430480
pair_coeff 4 4 lj/charmm/coul/long   0.092819288708   3.747173762880
pair_coeff 5 5 lj/charmm/coul/long   0.084917608798   3.338103842626
pair_coeff 6 6 lj/charmm/coul/long   0.086230713069   3.503406100323
pair_coeff 7 7 lj/charmm/coul/long   0.087548427812   3.513801521433
pair_coeff 8 8 lj/charmm/coul/long   0.208665194112   3.023242119343
pair_coeff 9 9 lj/charmm/coul/long   0.087604662075   3.583692684351
pair_coeff 10 10 lj/charmm/coul/long   0.022771166722   2.817415969919
pair_coeff 11 11 lj/charmm/coul/long   0.088522764684   3.500146335148
pair_coeff 12 12 lj/charmm/coul/long   0.017832443194   2.483956574774
pair_coeff 13 13 lj/charmm/coul/long   0.087793344732   3.562587014163
pair_coeff 14 14 lj/charmm/coul/long   0.022775223693   2.790390655076
pair_coeff 15 15 lj/charmm/coul/long   0.021308848415   2.708876641709
pair_coeff 16 16 lj/charmm/coul/long   0.003077714759   0.972591649768
pair_coeff 17 17 lj/charmm/coul/long   0.021349940133   2.685381127873
pair_coeff 18 18 lj/charmm/coul/long   0.015639648869   2.682463817322
pair_coeff 19 19 lj/charmm/coul/long   0.022595635141   2.738364183793
bond_coeff 1 harmonic 369.52878   0.95862
bond_coeff 2 harmonic 386.23269   1.34338
bond_coeff 3 harmonic 344.48759   1.08243
bond_coeff 4 harmonic 477.03767   1.37392
angle_coeff 1 harmonic  70.21851 121.05627
angle_coeff 2 harmonic  53.21694 114.66973
angle_coeff 3 harmonic  63.86808 126.36995
angle_coeff 4 harmonic  48.26721 108.53479
dihedral_coeff 1 fourier 4  -0.08101 1   0.00000  4.05393 2 180.00000 -0.72056 3   0.00000  0.10976 4   0.00000
dihedral_coeff 2 fourier 4  -0.65961 1   0.00000  0.79088 2 180.00000 -6.56852 3   0.00000 -0.16192 4   0.00000
improper_coeff 1 cvff   1.10000 -1 2
