pair_coeff 1 1 lj/charmm/coul/long   0.083605436104   3.322805431819
pair_coeff 2 2 lj/charmm/coul/long   0.085611035225   3.416744184575
pair_coeff 3 3 lj/charmm/coul/long   0.085807872694   3.336069512574
pair_coeff 4 4 lj/charmm/coul/long   0.095345340094   3.865328456097
pair_coeff 5 5 lj/charmm/coul/long   0.086360179940   3.327663570955
pair_coeff 6 6 lj/charmm/coul/long   0.090032714608   3.458047322003
pair_coeff 7 7 lj/charmm/coul/long   0.090760909728   3.474134455586
pair_coeff 8 8 lj/charmm/coul/long   0.208228558261   2.986849521002
pair_coeff 9 9 lj/charmm/coul/long   0.087381310541   3.556622226334
pair_coeff 10 10 lj/charmm/coul/long   0.029235636407   2.875422280603
pair_coeff 11 11 lj/charmm/coul/long   0.088043837254   3.345603107451
pair_coeff 12 12 lj/charmm/coul/long   0.029428561293   2.598830348768
pair_coeff 13 13 lj/charmm/coul/long   0.091113259223   3.473339491504
pair_coeff 14 14 lj/charmm/coul/long   0.029943520933   2.664896653718
pair_coeff 15 15 lj/charmm/coul/long   0.029131105656   2.656935621282
pair_coeff 16 16 lj/charmm/coul/long   0.002287212169   1.007051429490
pair_coeff 17 17 lj/charmm/coul/long   0.029999512427   2.908148114398
pair_coeff 18 18 lj/charmm/coul/long   0.025999924569   2.837708744495
pair_coeff 19 19 lj/charmm/coul/long   0.027152753996   2.636090174646
bond_coeff 1 harmonic 369.49581   0.95761
bond_coeff 2 harmonic 386.20716   1.35381
bond_coeff 3 harmonic 344.45812   1.08077
bond_coeff 4 harmonic 476.08896   1.37420
angle_coeff 1 harmonic  71.68250 120.80849
angle_coeff 2 harmonic  52.48069 116.40895
angle_coeff 3 harmonic  68.19565 124.95049
angle_coeff 4 harmonic  48.02528 108.14625
dihedral_coeff 1 fourier 4   0.05486 1   0.00000  5.16582 2 180.00000  0.16148 3   0.00000  1.39212 4   0.00000
dihedral_coeff 2 fourier 4   0.35665 1   0.00000  0.86045 2 180.00000 -2.84057 3   0.00000 -0.18815 4   0.00000
improper_coeff 1 cvff   1.10000 -1 2
